c FILE: balanced_graphs/balanced_60_3_50_2.col
c
c DESCRIPTION: Random balanced graph, 60 nodes,
c              partitions 3
c              edge probability 0.5
c
c G(60,3,0.5) graph
c number of vertices : 60
c max number of edges: 1770
c edge probability   : 0.5
c
c           Graph Stats
c number of vertices  : 60
c nonisolated vertices: 60
c number of edges     : 620
c edge density        : 0.3503
c max degree          : 27
c avg degree          : 20.67
c min degree          : 14
c
p col 60 620
e 1 21
e 1 22
e 1 27
e 1 28
e 1 29
e 1 32
e 1 34
e 1 36
e 1 39
e 1 40
e 1 43
e 1 44
e 1 46
e 1 52
e 1 53
e 1 54
e 1 55
e 1 59
e 1 60
e 2 22
e 2 24
e 2 27
e 2 29
e 2 30
e 2 34
e 2 39
e 2 40
e 2 41
e 2 43
e 2 45
e 2 46
e 2 48
e 2 49
e 2 50
e 2 52
e 2 54
e 2 55
e 2 56
e 2 57
e 2 58
e 2 60
e 3 23
e 3 24
e 3 26
e 3 27
e 3 31
e 3 32
e 3 35
e 3 38
e 3 41
e 3 43
e 3 44
e 3 46
e 3 47
e 3 51
e 3 52
e 3 54
e 3 55
e 3 56
e 3 58
e 3 59
e 4 23
e 4 25
e 4 27
e 4 29
e 4 31
e 4 33
e 4 34
e 4 38
e 4 39
e 4 40
e 4 41
e 4 42
e 4 43
e 4 51
e 4 52
e 4 54
e 4 55
e 4 56
e 4 57
e 4 59
e 4 60
e 5 22
e 5 23
e 5 24
e 5 26
e 5 28
e 5 29
e 5 30
e 5 35
e 5 37
e 5 38
e 5 39
e 5 40
e 5 42
e 5 44
e 5 49
e 5 51
e 5 53
e 5 54
e 5 56
e 5 59
e 5 60
e 6 21
e 6 24
e 6 25
e 6 27
e 6 28
e 6 30
e 6 31
e 6 34
e 6 36
e 6 37
e 6 39
e 6 40
e 6 41
e 6 42
e 6 45
e 6 46
e 6 47
e 6 54
e 6 56
e 6 58
e 6 60
e 7 22
e 7 23
e 7 24
e 7 26
e 7 28
e 7 29
e 7 30
e 7 31
e 7 32
e 7 33
e 7 35
e 7 37
e 7 39
e 7 42
e 7 44
e 7 45
e 7 46
e 7 47
e 7 48
e 7 50
e 7 51
e 7 53
e 7 56
e 7 57
e 7 58
e 7 60
e 8 22
e 8 23
e 8 24
e 8 28
e 8 31
e 8 32
e 8 33
e 8 35
e 8 37
e 8 39
e 8 45
e 8 46
e 8 48
e 8 50
e 8 51
e 8 52
e 8 53
e 8 55
e 8 56
e 8 57
e 8 60
e 9 22
e 9 23
e 9 24
e 9 25
e 9 26
e 9 28
e 9 29
e 9 31
e 9 33
e 9 34
e 9 35
e 9 36
e 9 37
e 9 38
e 9 40
e 9 42
e 9 44
e 9 45
e 9 47
e 9 48
e 9 50
e 9 51
e 9 52
e 9 54
e 9 57
e 9 59
e 9 60
e 10 22
e 10 23
e 10 24
e 10 25
e 10 26
e 10 29
e 10 32
e 10 33
e 10 34
e 10 35
e 10 37
e 10 38
e 10 42
e 10 45
e 10 47
e 10 48
e 10 51
e 10 54
e 10 55
e 10 57
e 10 58
e 10 59
e 11 21
e 11 23
e 11 24
e 11 26
e 11 27
e 11 28
e 11 29
e 11 30
e 11 33
e 11 36
e 11 37
e 11 38
e 11 40
e 11 41
e 11 42
e 11 45
e 11 47
e 11 48
e 11 51
e 11 55
e 11 57
e 11 59
e 11 60
e 12 22
e 12 24
e 12 27
e 12 29
e 12 30
e 12 34
e 12 35
e 12 37
e 12 38
e 12 40
e 12 42
e 12 44
e 12 45
e 12 48
e 12 49
e 12 51
e 12 52
e 12 55
e 12 57
e 12 59
e 12 60
e 13 21
e 13 22
e 13 23
e 13 26
e 13 27
e 13 28
e 13 29
e 13 30
e 13 31
e 13 33
e 13 34
e 13 35
e 13 36
e 13 37
e 13 38
e 13 41
e 13 44
e 13 47
e 13 48
e 13 49
e 13 51
e 13 52
e 13 54
e 13 56
e 13 57
e 13 58
e 13 60
e 14 23
e 14 26
e 14 28
e 14 29
e 14 30
e 14 31
e 14 32
e 14 33
e 14 35
e 14 37
e 14 41
e 14 43
e 14 44
e 14 45
e 14 55
e 14 56
e 14 57
e 14 59
e 14 60
e 15 21
e 15 24
e 15 29
e 15 31
e 15 35
e 15 39
e 15 41
e 15 42
e 15 44
e 15 45
e 15 47
e 15 48
e 15 49
e 15 52
e 15 53
e 15 55
e 15 58
e 15 59
e 15 60
e 16 21
e 16 24
e 16 26
e 16 27
e 16 28
e 16 29
e 16 33
e 16 36
e 16 37
e 16 38
e 16 40
e 16 42
e 16 43
e 16 44
e 16 45
e 16 47
e 16 49
e 16 50
e 16 52
e 16 54
e 16 58
e 17 23
e 17 26
e 17 28
e 17 29
e 17 32
e 17 33
e 17 34
e 17 38
e 17 41
e 17 44
e 17 45
e 17 47
e 17 49
e 17 51
e 17 53
e 17 54
e 17 55
e 17 56
e 17 57
e 17 59
e 17 60
e 18 26
e 18 28
e 18 31
e 18 34
e 18 36
e 18 45
e 18 46
e 18 47
e 18 50
e 18 52
e 18 54
e 18 55
e 18 58
e 18 60
e 19 22
e 19 25
e 19 28
e 19 30
e 19 31
e 19 33
e 19 34
e 19 35
e 19 37
e 19 39
e 19 40
e 19 41
e 19 42
e 19 44
e 19 48
e 19 49
e 19 50
e 19 52
e 19 53
e 19 56
e 19 58
e 19 59
e 20 21
e 20 24
e 20 30
e 20 31
e 20 32
e 20 33
e 20 35
e 20 36
e 20 37
e 20 39
e 20 41
e 20 42
e 20 44
e 20 48
e 20 49
e 20 53
e 20 54
e 20 55
e 20 56
e 20 57
e 21 41
e 21 43
e 21 44
e 21 47
e 21 53
e 21 54
e 21 56
e 21 57
e 22 43
e 22 44
e 22 45
e 22 46
e 22 48
e 22 50
e 22 51
e 22 52
e 22 54
e 22 55
e 22 56
e 23 41
e 23 42
e 23 43
e 23 45
e 23 49
e 23 50
e 23 52
e 23 53
e 23 55
e 23 56
e 23 57
e 23 59
e 24 41
e 24 42
e 24 45
e 24 46
e 24 48
e 24 49
e 24 55
e 24 58
e 24 60
e 25 42
e 25 44
e 25 45
e 25 46
e 25 47
e 25 48
e 25 49
e 25 52
e 25 54
e 25 55
e 25 60
e 26 41
e 26 45
e 26 47
e 26 51
e 26 52
e 26 54
e 26 59
e 26 60
e 27 42
e 27 43
e 27 45
e 27 47
e 27 48
e 27 49
e 27 53
e 27 58
e 27 60
e 28 41
e 28 42
e 28 43
e 28 48
e 28 49
e 28 50
e 28 51
e 28 52
e 28 57
e 28 59
e 29 43
e 29 44
e 29 45
e 29 47
e 29 48
e 29 49
e 29 51
e 29 52
e 29 54
e 29 55
e 29 56
e 29 58
e 30 45
e 30 48
e 30 49
e 30 51
e 30 52
e 30 54
e 30 56
e 30 58
e 30 59
e 31 42
e 31 43
e 31 44
e 31 48
e 31 50
e 31 51
e 31 53
e 31 54
e 31 58
e 31 60
e 32 42
e 32 43
e 32 44
e 32 47
e 32 48
e 32 49
e 32 53
e 32 59
e 33 41
e 33 43
e 33 44
e 33 45
e 33 46
e 33 49
e 33 50
e 33 51
e 33 53
e 33 55
e 33 56
e 33 58
e 33 59
e 34 42
e 34 44
e 34 48
e 34 49
e 34 52
e 34 53
e 34 56
e 34 59
e 34 60
e 35 42
e 35 43
e 35 45
e 35 47
e 35 48
e 35 50
e 35 52
e 35 54
e 35 55
e 35 57
e 35 60
e 36 42
e 36 44
e 36 45
e 36 46
e 36 49
e 36 51
e 36 54
e 36 56
e 36 58
e 36 59
e 37 44
e 37 45
e 37 48
e 37 49
e 37 51
e 37 56
e 37 58
e 38 41
e 38 43
e 38 44
e 38 45
e 38 46
e 38 47
e 38 49
e 38 52
e 38 53
e 38 57
e 38 60
e 39 41
e 39 42
e 39 49
e 39 50
e 39 60
e 40 43
e 40 46
e 40 47
e 40 48
e 40 49
e 40 50
e 40 55
e 40 57
e 40 58
e 40 60
