c FILE: balanced_graphs/balanced_60_3_10_4.col
c
c DESCRIPTION: Random balanced graph, 60 nodes,
c              partitions 3
c              edge probability 0.1
c
c G(60,3,0.1) graph
c number of vertices : 60
c max number of edges: 1770
c edge probability   : 0.1
c
c           Graph Stats
c number of vertices  : 60
c nonisolated vertices: 60
c number of edges     : 130
c edge density        : 0.0734
c max degree          : 11
c avg degree          : 4.33
c min degree          : 1
c
p col 60 130
e 1 33
e 1 44
e 1 45
e 1 57
e 2 23
e 2 37
e 2 41
e 2 55
e 2 59
e 3 31
e 3 49
e 4 31
e 4 34
e 4 40
e 4 48
e 4 54
e 5 21
e 5 23
e 5 24
e 5 25
e 5 28
e 5 29
e 5 50
e 5 54
e 5 56
e 6 21
e 6 33
e 6 34
e 6 45
e 6 52
e 7 24
e 7 28
e 7 34
e 7 37
e 7 45
e 8 21
e 8 27
e 8 28
e 8 41
e 8 45
e 8 48
e 8 50
e 9 32
e 9 35
e 10 32
e 10 43
e 11 26
e 11 42
e 11 44
e 11 49
e 11 60
e 12 23
e 12 26
e 12 35
e 12 47
e 12 48
e 12 59
e 13 41
e 13 43
e 13 44
e 13 48
e 13 56
e 13 57
e 14 32
e 14 39
e 14 44
e 15 26
e 15 39
e 15 44
e 15 54
e 15 59
e 16 21
e 16 23
e 16 24
e 16 37
e 16 51
e 17 23
e 17 26
e 17 53
e 17 57
e 18 35
e 18 44
e 18 58
e 19 27
e 19 35
e 19 44
e 19 59
e 20 31
e 20 52
e 20 53
e 20 55
e 21 48
e 22 45
e 22 52
e 22 53
e 23 60
e 24 44
e 25 49
e 26 58
e 27 41
e 28 42
e 28 50
e 28 55
e 28 59
e 30 47
e 30 56
e 32 44
e 32 46
e 33 57
e 33 58
e 34 42
e 34 60
e 35 44
e 35 49
e 35 56
e 36 43
e 36 45
e 36 47
e 36 50
e 37 41
e 37 42
e 37 48
e 37 56
e 38 50
e 38 54
e 38 56
e 39 54
e 40 44
e 40 52
e 40 59
