c FILE: balanced_graphs/balanced_60_3_50_1.col
c
c DESCRIPTION: Random balanced graph, 60 nodes,
c              partitions 3
c              edge probability 0.5
c
c G(60,3,0.5) graph
c number of vertices : 60
c max number of edges: 1770
c edge probability   : 0.5
c
c           Graph Stats
c number of vertices  : 60
c nonisolated vertices: 60
c number of edges     : 617
c edge density        : 0.3486
c max degree          : 26
c avg degree          : 20.57
c min degree          : 13
c
p col 60 617
e 1 21
e 1 23
e 1 24
e 1 26
e 1 29
e 1 30
e 1 33
e 1 34
e 1 35
e 1 36
e 1 37
e 1 40
e 1 42
e 1 46
e 1 50
e 1 52
e 1 55
e 1 56
e 1 58
e 2 21
e 2 23
e 2 24
e 2 25
e 2 26
e 2 27
e 2 28
e 2 30
e 2 32
e 2 33
e 2 35
e 2 36
e 2 37
e 2 38
e 2 39
e 2 40
e 2 41
e 2 42
e 2 51
e 2 56
e 2 58
e 2 59
e 2 60
e 3 21
e 3 23
e 3 25
e 3 30
e 3 31
e 3 32
e 3 33
e 3 35
e 3 38
e 3 41
e 3 42
e 3 43
e 3 45
e 3 46
e 3 48
e 3 52
e 3 54
e 3 60
e 4 21
e 4 22
e 4 23
e 4 24
e 4 25
e 4 31
e 4 32
e 4 33
e 4 36
e 4 37
e 4 41
e 4 43
e 4 47
e 4 51
e 4 52
e 4 54
e 4 55
e 4 59
e 4 60
e 5 23
e 5 24
e 5 25
e 5 27
e 5 28
e 5 31
e 5 32
e 5 34
e 5 35
e 5 36
e 5 37
e 5 38
e 5 39
e 5 40
e 5 43
e 5 45
e 5 47
e 5 50
e 5 51
e 5 52
e 5 54
e 5 56
e 6 21
e 6 24
e 6 26
e 6 27
e 6 29
e 6 30
e 6 31
e 6 34
e 6 36
e 6 37
e 6 40
e 6 41
e 6 43
e 6 44
e 6 48
e 6 55
e 6 56
e 6 58
e 6 59
e 6 60
e 7 23
e 7 24
e 7 26
e 7 27
e 7 28
e 7 30
e 7 31
e 7 33
e 7 34
e 7 35
e 7 39
e 7 40
e 7 42
e 7 43
e 7 44
e 7 46
e 7 48
e 7 51
e 7 55
e 7 57
e 7 59
e 8 21
e 8 22
e 8 23
e 8 24
e 8 31
e 8 44
e 8 45
e 8 46
e 8 50
e 8 51
e 8 53
e 8 54
e 8 55
e 8 56
e 8 57
e 8 58
e 8 60
e 9 21
e 9 22
e 9 23
e 9 24
e 9 26
e 9 27
e 9 29
e 9 32
e 9 34
e 9 35
e 9 37
e 9 40
e 9 41
e 9 43
e 9 44
e 9 45
e 9 46
e 9 47
e 9 51
e 9 54
e 9 55
e 9 60
e 10 22
e 10 25
e 10 28
e 10 30
e 10 32
e 10 33
e 10 34
e 10 38
e 10 44
e 10 45
e 10 49
e 10 53
e 10 56
e 10 57
e 10 58
e 10 59
e 11 21
e 11 23
e 11 24
e 11 28
e 11 29
e 11 30
e 11 31
e 11 32
e 11 33
e 11 34
e 11 38
e 11 39
e 11 41
e 11 44
e 11 51
e 11 54
e 11 56
e 11 57
e 11 59
e 11 60
e 12 27
e 12 28
e 12 33
e 12 37
e 12 39
e 12 40
e 12 41
e 12 43
e 12 48
e 12 54
e 12 57
e 12 59
e 12 60
e 13 21
e 13 22
e 13 23
e 13 24
e 13 27
e 13 30
e 13 32
e 13 34
e 13 35
e 13 36
e 13 37
e 13 38
e 13 43
e 13 47
e 13 49
e 13 51
e 13 52
e 13 55
e 13 57
e 13 59
e 13 60
e 14 22
e 14 24
e 14 26
e 14 27
e 14 28
e 14 29
e 14 30
e 14 33
e 14 34
e 14 36
e 14 38
e 14 39
e 14 41
e 14 42
e 14 43
e 14 44
e 14 49
e 14 53
e 14 55
e 14 56
e 14 58
e 14 59
e 15 21
e 15 22
e 15 26
e 15 29
e 15 30
e 15 31
e 15 33
e 15 34
e 15 35
e 15 36
e 15 37
e 15 40
e 15 41
e 15 42
e 15 43
e 15 44
e 15 45
e 15 47
e 15 51
e 15 54
e 15 55
e 16 23
e 16 24
e 16 26
e 16 27
e 16 28
e 16 29
e 16 30
e 16 31
e 16 32
e 16 33
e 16 35
e 16 36
e 16 37
e 16 38
e 16 39
e 16 40
e 16 44
e 16 45
e 16 47
e 16 49
e 16 50
e 16 54
e 16 57
e 16 58
e 16 60
e 17 21
e 17 25
e 17 26
e 17 27
e 17 28
e 17 29
e 17 32
e 17 34
e 17 35
e 17 36
e 17 37
e 17 41
e 17 42
e 17 43
e 17 46
e 17 48
e 17 49
e 17 50
e 17 54
e 17 59
e 18 21
e 18 23
e 18 24
e 18 25
e 18 31
e 18 32
e 18 33
e 18 34
e 18 35
e 18 36
e 18 38
e 18 39
e 18 42
e 18 43
e 18 45
e 18 48
e 18 50
e 18 51
e 18 52
e 18 53
e 18 54
e 18 56
e 18 58
e 18 59
e 18 60
e 19 21
e 19 22
e 19 24
e 19 25
e 19 26
e 19 29
e 19 30
e 19 31
e 19 32
e 19 33
e 19 36
e 19 38
e 19 40
e 19 41
e 19 42
e 19 43
e 19 44
e 19 46
e 19 50
e 19 51
e 19 52
e 19 56
e 19 57
e 19 59
e 19 60
e 20 25
e 20 28
e 20 31
e 20 33
e 20 35
e 20 39
e 20 40
e 20 41
e 20 42
e 20 43
e 20 45
e 20 46
e 20 49
e 20 51
e 20 53
e 20 54
e 20 58
e 20 59
e 21 42
e 21 43
e 21 44
e 21 45
e 21 47
e 21 50
e 21 51
e 21 52
e 21 54
e 21 57
e 21 58
e 21 59
e 22 41
e 22 43
e 22 44
e 22 45
e 22 48
e 22 51
e 22 52
e 22 53
e 22 56
e 22 59
e 22 60
e 23 43
e 23 44
e 23 47
e 23 48
e 23 49
e 23 50
e 23 51
e 23 54
e 23 55
e 23 56
e 23 57
e 23 59
e 23 60
e 24 43
e 24 44
e 24 45
e 24 46
e 24 47
e 24 52
e 24 53
e 24 56
e 24 57
e 24 59
e 24 60
e 25 44
e 25 46
e 25 48
e 25 50
e 25 55
e 25 56
e 25 59
e 26 42
e 26 43
e 26 45
e 26 51
e 26 56
e 26 57
e 27 41
e 27 44
e 27 45
e 27 46
e 27 47
e 27 48
e 27 49
e 27 50
e 27 51
e 27 52
e 27 54
e 27 55
e 27 56
e 27 58
e 27 59
e 27 60
e 28 41
e 28 42
e 28 44
e 28 47
e 28 48
e 28 50
e 28 52
e 28 53
e 28 57
e 28 59
e 28 60
e 29 41
e 29 42
e 29 44
e 29 45
e 29 47
e 29 49
e 29 50
e 29 51
e 29 54
e 29 55
e 29 56
e 29 57
e 29 60
e 30 44
e 30 49
e 30 50
e 30 55
e 30 57
e 30 58
e 30 59
e 31 41
e 31 44
e 31 45
e 31 52
e 31 53
e 31 56
e 31 57
e 31 58
e 31 60
e 32 41
e 32 42
e 32 43
e 32 45
e 32 46
e 32 47
e 32 51
e 32 53
e 32 56
e 32 57
e 32 59
e 33 41
e 33 44
e 33 45
e 33 49
e 33 50
e 33 51
e 33 55
e 33 56
e 33 57
e 33 58
e 33 60
e 34 41
e 34 42
e 34 43
e 34 44
e 34 45
e 34 47
e 34 48
e 34 49
e 34 52
e 34 53
e 34 56
e 34 57
e 34 58
e 34 60
e 35 41
e 35 43
e 35 48
e 35 53
e 35 55
e 35 57
e 35 58
e 35 59
e 36 41
e 36 43
e 36 46
e 36 47
e 36 48
e 36 51
e 36 52
e 36 54
e 36 55
e 36 57
e 36 60
e 37 42
e 37 44
e 37 45
e 37 55
e 37 57
e 37 59
e 37 60
e 38 41
e 38 45
e 38 47
e 38 48
e 38 49
e 38 50
e 38 53
e 38 55
e 38 57
e 38 58
e 38 60
e 39 42
e 39 43
e 39 44
e 39 48
e 39 52
e 39 54
e 39 55
e 39 56
e 39 57
e 39 58
e 39 59
e 40 41
e 40 46
e 40 47
e 40 48
e 40 49
e 40 50
e 40 52
e 40 56
e 40 59
e 40 60
