c FILE: balanced_graphs/balanced_60_3_10_3.col
c
c DESCRIPTION: Random balanced graph, 60 nodes,
c              partitions 3
c              edge probability 0.1
c
c G(60,3,0.1) graph
c number of vertices : 60
c max number of edges: 1770
c edge probability   : 0.1
c
c           Graph Stats
c number of vertices  : 60
c nonisolated vertices: 60
c number of edges     : 133
c edge density        : 0.0751
c max degree          : 12
c avg degree          : 4.43
c min degree          : 1
c
p col 60 133
e 1 24
e 1 27
e 1 41
e 1 49
e 2 23
e 2 27
e 2 34
e 3 22
e 3 24
e 3 26
e 3 28
e 3 31
e 3 34
e 3 36
e 3 37
e 3 46
e 3 53
e 3 57
e 3 60
e 4 25
e 4 27
e 4 43
e 4 44
e 4 47
e 4 51
e 5 21
e 5 31
e 5 34
e 6 31
e 6 36
e 6 38
e 6 43
e 6 46
e 6 54
e 6 56
e 6 58
e 7 21
e 7 22
e 7 25
e 7 49
e 7 50
e 7 56
e 8 21
e 8 25
e 8 30
e 8 32
e 8 47
e 8 57
e 9 47
e 9 52
e 9 54
e 10 31
e 10 48
e 11 28
e 11 40
e 11 42
e 11 43
e 12 26
e 12 27
e 12 33
e 12 35
e 12 38
e 12 48
e 12 53
e 13 28
e 14 22
e 14 25
e 14 42
e 14 44
e 14 45
e 15 49
e 15 50
e 15 57
e 16 25
e 16 33
e 16 51
e 16 53
e 16 59
e 17 27
e 17 41
e 17 45
e 17 47
e 17 58
e 18 43
e 19 22
e 19 31
e 19 45
e 19 59
e 20 50
e 21 42
e 21 51
e 22 44
e 22 49
e 22 58
e 23 43
e 24 50
e 24 55
e 25 43
e 25 44
e 26 48
e 26 57
e 27 43
e 27 53
e 28 47
e 28 52
e 28 57
e 29 42
e 29 45
e 29 49
e 30 41
e 30 44
e 30 59
e 30 60
e 31 42
e 32 59
e 33 47
e 34 48
e 34 51
e 35 41
e 35 43
e 35 45
e 37 44
e 37 52
e 37 55
e 37 57
e 37 58
e 38 45
e 39 48
e 39 50
e 39 60
e 40 42
e 40 49
e 40 55
