c FILE: balanced_graphs/balanced_60_3_25_4.col
c
c DESCRIPTION: Random balanced graph, 60 nodes,
c              partitions 3
c              edge probability 0.25
c
c G(60,3,0.25) graph
c number of vertices : 60
c max number of edges: 1770
c edge probability   : 0.25
c
c           Graph Stats
c number of vertices  : 60
c nonisolated vertices: 60
c number of edges     : 290
c edge density        : 0.1638
c max degree          : 16
c avg degree          : 9.67
c min degree          : 4
c
p col 60 290
e 1 30
e 1 34
e 1 35
e 1 38
e 1 41
e 1 46
e 1 51
e 1 53
e 1 54
e 2 22
e 2 23
e 2 32
e 2 35
e 2 46
e 2 49
e 2 59
e 3 22
e 3 23
e 3 25
e 3 26
e 3 30
e 3 34
e 3 45
e 3 47
e 3 48
e 3 51
e 3 53
e 4 21
e 4 22
e 4 24
e 4 27
e 4 33
e 4 34
e 4 36
e 4 41
e 4 42
e 4 47
e 4 52
e 5 21
e 5 26
e 5 32
e 5 38
e 5 48
e 5 50
e 5 53
e 5 60
e 6 24
e 6 29
e 6 33
e 6 37
e 6 40
e 6 47
e 6 51
e 6 60
e 7 25
e 7 37
e 7 44
e 7 49
e 7 51
e 7 56
e 8 21
e 8 31
e 8 35
e 8 40
e 8 41
e 8 43
e 8 45
e 8 57
e 9 22
e 9 25
e 9 27
e 9 28
e 9 32
e 9 34
e 9 37
e 9 38
e 9 40
e 9 44
e 9 49
e 9 56
e 9 59
e 10 22
e 10 23
e 10 35
e 10 40
e 10 49
e 10 54
e 10 56
e 10 60
e 11 21
e 11 23
e 11 28
e 11 35
e 11 42
e 11 47
e 11 52
e 11 53
e 11 54
e 11 58
e 11 59
e 12 24
e 12 25
e 12 27
e 12 28
e 12 38
e 12 41
e 12 42
e 12 43
e 12 48
e 12 50
e 12 53
e 13 21
e 13 25
e 13 26
e 13 28
e 13 31
e 13 34
e 13 36
e 13 37
e 13 38
e 13 41
e 13 46
e 13 48
e 13 51
e 13 53
e 13 57
e 13 60
e 14 21
e 14 24
e 14 25
e 14 30
e 14 31
e 14 36
e 14 40
e 14 46
e 14 48
e 14 50
e 14 56
e 15 21
e 15 23
e 15 24
e 15 29
e 15 30
e 15 32
e 15 35
e 15 43
e 15 45
e 15 49
e 15 53
e 15 54
e 15 57
e 15 58
e 16 37
e 16 46
e 16 49
e 16 50
e 16 52
e 16 54
e 16 56
e 17 23
e 17 27
e 17 30
e 17 35
e 17 37
e 17 41
e 17 46
e 17 48
e 17 49
e 18 34
e 18 36
e 18 40
e 18 52
e 19 26
e 19 31
e 19 33
e 19 35
e 19 36
e 19 43
e 19 45
e 19 47
e 19 52
e 19 54
e 19 55
e 20 21
e 20 23
e 20 24
e 20 35
e 20 37
e 20 49
e 21 43
e 21 47
e 21 48
e 21 49
e 21 52
e 21 53
e 21 57
e 22 42
e 22 47
e 22 49
e 22 56
e 22 57
e 23 44
e 23 48
e 23 51
e 23 56
e 23 60
e 24 48
e 24 55
e 24 56
e 24 58
e 25 46
e 25 48
e 25 51
e 25 55
e 26 41
e 26 48
e 26 54
e 26 60
e 27 41
e 27 42
e 27 52
e 27 56
e 27 60
e 28 53
e 28 56
e 28 60
e 29 45
e 29 48
e 29 50
e 29 51
e 29 57
e 29 58
e 30 42
e 30 45
e 30 50
e 30 51
e 30 53
e 30 57
e 31 41
e 31 43
e 31 48
e 31 53
e 31 54
e 31 55
e 31 58
e 31 59
e 32 45
e 33 43
e 33 44
e 33 50
e 33 59
e 33 60
e 34 42
e 34 50
e 34 52
e 34 53
e 34 55
e 34 58
e 35 41
e 35 42
e 35 44
e 35 46
e 35 50
e 35 57
e 35 60
e 36 41
e 36 44
e 36 45
e 36 46
e 36 48
e 36 50
e 36 54
e 36 55
e 36 60
e 37 48
e 37 52
e 37 53
e 37 55
e 38 54
e 38 55
e 39 48
e 39 53
e 39 55
e 39 57
e 40 42
e 40 46
e 40 50
e 40 51
e 40 52
e 40 56
