c FILE: balanced_graphs/balanced_60_3_50_5.col
c
c DESCRIPTION: Random balanced graph, 60 nodes,
c              partitions 3
c              edge probability 0.5
c
c G(60,3,0.5) graph
c number of vertices : 60
c max number of edges: 1770
c edge probability   : 0.5
c
c           Graph Stats
c number of vertices  : 60
c nonisolated vertices: 60
c number of edges     : 585
c edge density        : 0.3305
c max degree          : 27
c avg degree          : 19.50
c min degree          : 13
c
p col 60 585
e 1 24
e 1 25
e 1 26
e 1 30
e 1 33
e 1 34
e 1 39
e 1 40
e 1 43
e 1 45
e 1 48
e 1 55
e 1 56
e 1 60
e 2 21
e 2 22
e 2 24
e 2 28
e 2 29
e 2 35
e 2 38
e 2 39
e 2 43
e 2 47
e 2 48
e 2 51
e 2 54
e 2 57
e 3 21
e 3 22
e 3 24
e 3 26
e 3 27
e 3 30
e 3 31
e 3 33
e 3 36
e 3 38
e 3 39
e 3 40
e 3 41
e 3 43
e 3 44
e 3 45
e 3 47
e 3 49
e 3 52
e 3 53
e 3 54
e 3 55
e 3 56
e 3 58
e 4 27
e 4 29
e 4 32
e 4 33
e 4 34
e 4 37
e 4 38
e 4 41
e 4 42
e 4 46
e 4 48
e 4 50
e 4 57
e 5 21
e 5 22
e 5 24
e 5 25
e 5 27
e 5 30
e 5 31
e 5 32
e 5 37
e 5 40
e 5 44
e 5 46
e 5 47
e 5 48
e 5 52
e 5 55
e 5 56
e 5 59
e 6 26
e 6 27
e 6 28
e 6 29
e 6 31
e 6 35
e 6 36
e 6 37
e 6 38
e 6 42
e 6 43
e 6 45
e 6 49
e 6 53
e 6 54
e 6 55
e 6 56
e 6 57
e 7 21
e 7 23
e 7 26
e 7 27
e 7 28
e 7 29
e 7 30
e 7 32
e 7 34
e 7 36
e 7 37
e 7 39
e 7 40
e 7 41
e 7 43
e 7 45
e 7 46
e 7 51
e 7 52
e 7 54
e 7 55
e 7 57
e 8 22
e 8 23
e 8 24
e 8 26
e 8 27
e 8 29
e 8 30
e 8 34
e 8 35
e 8 39
e 8 42
e 8 45
e 8 46
e 8 47
e 8 51
e 8 52
e 8 54
e 8 55
e 8 56
e 8 57
e 8 58
e 8 59
e 8 60
e 9 23
e 9 24
e 9 28
e 9 30
e 9 32
e 9 33
e 9 36
e 9 37
e 9 39
e 9 42
e 9 43
e 9 45
e 9 46
e 9 47
e 9 48
e 9 49
e 9 51
e 9 53
e 9 56
e 9 57
e 9 59
e 10 24
e 10 25
e 10 26
e 10 29
e 10 32
e 10 35
e 10 37
e 10 39
e 10 41
e 10 44
e 10 45
e 10 48
e 10 49
e 10 50
e 10 51
e 10 54
e 10 55
e 10 56
e 10 57
e 10 60
e 11 23
e 11 25
e 11 28
e 11 29
e 11 30
e 11 32
e 11 34
e 11 36
e 11 38
e 11 39
e 11 40
e 11 44
e 11 45
e 11 47
e 11 49
e 11 50
e 11 52
e 11 55
e 12 21
e 12 23
e 12 25
e 12 26
e 12 31
e 12 32
e 12 33
e 12 37
e 12 40
e 12 41
e 12 42
e 12 45
e 12 46
e 12 52
e 12 53
e 12 54
e 12 57
e 12 59
e 12 60
e 13 21
e 13 22
e 13 23
e 13 25
e 13 32
e 13 34
e 13 36
e 13 37
e 13 38
e 13 40
e 13 43
e 13 44
e 13 45
e 13 47
e 13 48
e 13 49
e 13 51
e 13 53
e 13 54
e 13 57
e 13 59
e 14 21
e 14 22
e 14 24
e 14 25
e 14 26
e 14 27
e 14 28
e 14 32
e 14 33
e 14 35
e 14 36
e 14 37
e 14 39
e 14 45
e 14 48
e 14 49
e 14 52
e 14 53
e 14 54
e 14 55
e 14 58
e 14 59
e 14 60
e 15 22
e 15 23
e 15 26
e 15 30
e 15 31
e 15 32
e 15 33
e 15 38
e 15 40
e 15 43
e 15 45
e 15 50
e 15 51
e 15 54
e 15 58
e 15 59
e 15 60
e 16 24
e 16 26
e 16 28
e 16 29
e 16 31
e 16 33
e 16 34
e 16 35
e 16 36
e 16 37
e 16 38
e 16 39
e 16 44
e 16 48
e 16 50
e 16 55
e 16 56
e 16 57
e 16 59
e 17 22
e 17 26
e 17 27
e 17 29
e 17 32
e 17 33
e 17 34
e 17 41
e 17 44
e 17 45
e 17 47
e 17 48
e 17 50
e 17 51
e 17 52
e 17 56
e 18 24
e 18 25
e 18 26
e 18 27
e 18 29
e 18 30
e 18 32
e 18 35
e 18 36
e 18 37
e 18 39
e 18 40
e 18 43
e 18 44
e 18 47
e 18 50
e 18 55
e 19 21
e 19 22
e 19 23
e 19 24
e 19 25
e 19 26
e 19 27
e 19 28
e 19 31
e 19 33
e 19 35
e 19 37
e 19 38
e 19 41
e 19 42
e 19 46
e 19 48
e 19 49
e 19 50
e 19 51
e 19 52
e 19 55
e 19 58
e 19 59
e 19 60
e 20 21
e 20 22
e 20 24
e 20 26
e 20 28
e 20 29
e 20 32
e 20 34
e 20 35
e 20 36
e 20 43
e 20 44
e 20 45
e 20 49
e 20 50
e 20 51
e 20 54
e 20 56
e 20 58
e 20 59
e 20 60
e 21 41
e 21 43
e 21 44
e 21 47
e 21 48
e 21 49
e 21 51
e 21 52
e 21 53
e 21 55
e 21 56
e 21 57
e 21 58
e 22 43
e 22 44
e 22 45
e 22 48
e 22 51
e 22 53
e 22 54
e 22 57
e 22 58
e 22 60
e 23 41
e 23 42
e 23 43
e 23 44
e 23 45
e 23 47
e 23 48
e 23 50
e 23 51
e 23 57
e 23 58
e 23 59
e 23 60
e 24 41
e 24 42
e 24 43
e 24 44
e 24 45
e 24 47
e 24 49
e 24 50
e 24 52
e 24 54
e 24 55
e 24 57
e 24 58
e 24 59
e 24 60
e 25 41
e 25 42
e 25 43
e 25 45
e 25 46
e 25 47
e 25 52
e 25 53
e 25 55
e 25 60
e 26 44
e 26 45
e 26 46
e 26 49
e 26 52
e 26 54
e 26 56
e 26 58
e 26 59
e 27 44
e 27 47
e 27 48
e 27 52
e 27 53
e 27 55
e 27 56
e 27 57
e 27 59
e 28 41
e 28 42
e 28 43
e 28 44
e 28 45
e 28 48
e 28 53
e 28 55
e 28 56
e 28 59
e 29 43
e 29 44
e 29 46
e 29 47
e 29 48
e 29 50
e 29 52
e 29 56
e 29 59
e 30 42
e 30 44
e 30 45
e 30 46
e 30 48
e 30 51
e 30 58
e 30 59
e 31 41
e 31 42
e 31 43
e 31 45
e 31 47
e 31 49
e 31 54
e 31 60
e 32 41
e 32 42
e 32 44
e 32 45
e 32 46
e 32 49
e 32 50
e 32 51
e 32 52
e 32 53
e 32 56
e 32 58
e 32 59
e 32 60
e 33 43
e 33 44
e 33 46
e 33 49
e 33 50
e 33 51
e 33 55
e 33 57
e 33 59
e 33 60
e 34 41
e 34 43
e 34 46
e 34 48
e 34 49
e 34 51
e 34 52
e 34 53
e 34 54
e 34 56
e 35 42
e 35 43
e 35 45
e 35 47
e 35 50
e 35 54
e 35 55
e 35 58
e 35 59
e 35 60
e 36 43
e 36 44
e 36 45
e 36 46
e 36 50
e 36 52
e 36 54
e 36 59
e 37 41
e 37 44
e 37 46
e 37 50
e 37 52
e 37 53
e 37 56
e 37 57
e 37 60
e 38 41
e 38 42
e 38 46
e 38 48
e 38 51
e 38 54
e 38 55
e 38 56
e 38 57
e 38 60
e 39 42
e 39 46
e 39 47
e 39 49
e 39 51
e 39 53
e 39 56
e 39 57
e 40 41
e 40 42
e 40 43
e 40 47
e 40 49
e 40 51
e 40 52
e 40 53
e 40 60
