c FILE: balanced_graphs/balanced_140_7_50_1.col
c
c DESCRIPTION: Random balanced graph, 140 nodes,
c              partitions 7
c              edge probability 0.5
c
c G(140,7,0.5) graph
c number of vertices : 140
c max number of edges: 9730
c edge probability   : 0.5
c
c           Graph Stats
c number of vertices  : 140
c nonisolated vertices: 140
c number of edges     : 4151
c edge density        : 0.4266
c max degree          : 72
c avg degree          : 59.30
c min degree          : 45
c
p col 140 4151
e 1 22
e 1 24
e 1 25
e 1 26
e 1 27
e 1 28
e 1 31
e 1 32
e 1 33
e 1 36
e 1 38
e 1 42
e 1 46
e 1 49
e 1 50
e 1 51
e 1 52
e 1 54
e 1 56
e 1 59
e 1 61
e 1 63
e 1 65
e 1 67
e 1 68
e 1 71
e 1 73
e 1 74
e 1 78
e 1 81
e 1 83
e 1 85
e 1 88
e 1 89
e 1 92
e 1 94
e 1 98
e 1 101
e 1 102
e 1 105
e 1 106
e 1 107
e 1 113
e 1 115
e 1 116
e 1 118
e 1 120
e 1 122
e 1 124
e 1 125
e 1 131
e 1 133
e 1 134
e 1 135
e 1 136
e 1 137
e 1 138
e 2 22
e 2 25
e 2 27
e 2 28
e 2 29
e 2 30
e 2 35
e 2 36
e 2 37
e 2 45
e 2 46
e 2 47
e 2 49
e 2 52
e 2 56
e 2 59
e 2 62
e 2 63
e 2 71
e 2 72
e 2 75
e 2 77
e 2 80
e 2 83
e 2 85
e 2 86
e 2 88
e 2 91
e 2 95
e 2 97
e 2 103
e 2 105
e 2 111
e 2 113
e 2 115
e 2 116
e 2 117
e 2 119
e 2 120
e 2 121
e 2 122
e 2 123
e 2 124
e 2 126
e 2 128
e 2 129
e 2 130
e 2 131
e 2 133
e 2 138
e 3 21
e 3 24
e 3 26
e 3 27
e 3 28
e 3 31
e 3 37
e 3 38
e 3 39
e 3 40
e 3 42
e 3 43
e 3 46
e 3 48
e 3 49
e 3 50
e 3 52
e 3 54
e 3 60
e 3 61
e 3 62
e 3 63
e 3 65
e 3 68
e 3 69
e 3 77
e 3 78
e 3 79
e 3 80
e 3 81
e 3 82
e 3 83
e 3 84
e 3 86
e 3 87
e 3 90
e 3 91
e 3 93
e 3 94
e 3 97
e 3 104
e 3 107
e 3 108
e 3 110
e 3 111
e 3 112
e 3 113
e 3 114
e 3 115
e 3 117
e 3 118
e 3 120
e 3 122
e 3 125
e 3 128
e 3 132
e 3 134
e 3 138
e 3 139
e 3 140
e 4 23
e 4 26
e 4 28
e 4 31
e 4 32
e 4 33
e 4 35
e 4 37
e 4 39
e 4 41
e 4 42
e 4 43
e 4 45
e 4 49
e 4 50
e 4 53
e 4 55
e 4 59
e 4 60
e 4 61
e 4 67
e 4 68
e 4 74
e 4 81
e 4 83
e 4 84
e 4 85
e 4 86
e 4 89
e 4 94
e 4 100
e 4 101
e 4 102
e 4 103
e 4 106
e 4 108
e 4 109
e 4 110
e 4 111
e 4 112
e 4 114
e 4 115
e 4 116
e 4 117
e 4 125
e 4 127
e 4 129
e 4 133
e 4 134
e 4 135
e 4 136
e 4 138
e 4 139
e 5 25
e 5 28
e 5 29
e 5 31
e 5 33
e 5 35
e 5 36
e 5 37
e 5 40
e 5 43
e 5 44
e 5 47
e 5 49
e 5 51
e 5 53
e 5 54
e 5 55
e 5 56
e 5 58
e 5 59
e 5 60
e 5 62
e 5 64
e 5 68
e 5 69
e 5 73
e 5 74
e 5 75
e 5 76
e 5 77
e 5 80
e 5 81
e 5 85
e 5 86
e 5 88
e 5 89
e 5 90
e 5 91
e 5 92
e 5 94
e 5 95
e 5 96
e 5 97
e 5 98
e 5 100
e 5 101
e 5 107
e 5 112
e 5 115
e 5 117
e 5 118
e 5 122
e 5 123
e 5 125
e 5 127
e 5 129
e 5 130
e 5 131
e 5 133
e 5 134
e 5 135
e 5 136
e 5 138
e 5 140
e 6 24
e 6 26
e 6 27
e 6 31
e 6 32
e 6 34
e 6 35
e 6 36
e 6 38
e 6 42
e 6 49
e 6 50
e 6 52
e 6 53
e 6 56
e 6 61
e 6 65
e 6 68
e 6 69
e 6 71
e 6 73
e 6 75
e 6 76
e 6 77
e 6 78
e 6 81
e 6 83
e 6 84
e 6 85
e 6 86
e 6 88
e 6 92
e 6 93
e 6 95
e 6 97
e 6 99
e 6 101
e 6 103
e 6 104
e 6 106
e 6 107
e 6 108
e 6 109
e 6 110
e 6 112
e 6 113
e 6 114
e 6 119
e 6 123
e 6 124
e 6 128
e 6 129
e 6 133
e 6 134
e 6 136
e 6 138
e 6 140
e 7 21
e 7 23
e 7 24
e 7 26
e 7 27
e 7 29
e 7 32
e 7 33
e 7 34
e 7 35
e 7 36
e 7 37
e 7 41
e 7 45
e 7 46
e 7 47
e 7 48
e 7 50
e 7 51
e 7 57
e 7 59
e 7 62
e 7 63
e 7 64
e 7 66
e 7 69
e 7 70
e 7 76
e 7 82
e 7 83
e 7 85
e 7 86
e 7 87
e 7 90
e 7 92
e 7 97
e 7 99
e 7 100
e 7 101
e 7 104
e 7 107
e 7 113
e 7 115
e 7 116
e 7 118
e 7 119
e 7 120
e 7 122
e 7 123
e 7 126
e 7 127
e 7 128
e 7 129
e 7 130
e 7 135
e 7 137
e 7 138
e 7 139
e 8 21
e 8 23
e 8 24
e 8 26
e 8 28
e 8 29
e 8 32
e 8 35
e 8 36
e 8 37
e 8 38
e 8 39
e 8 40
e 8 42
e 8 44
e 8 45
e 8 46
e 8 48
e 8 49
e 8 51
e 8 52
e 8 58
e 8 59
e 8 60
e 8 63
e 8 64
e 8 66
e 8 67
e 8 72
e 8 73
e 8 74
e 8 75
e 8 77
e 8 78
e 8 79
e 8 82
e 8 86
e 8 88
e 8 90
e 8 95
e 8 99
e 8 100
e 8 101
e 8 102
e 8 103
e 8 105
e 8 110
e 8 111
e 8 115
e 8 119
e 8 120
e 8 126
e 8 128
e 8 129
e 8 130
e 8 133
e 8 137
e 8 140
e 9 21
e 9 22
e 9 23
e 9 27
e 9 32
e 9 33
e 9 34
e 9 35
e 9 36
e 9 37
e 9 43
e 9 44
e 9 46
e 9 47
e 9 50
e 9 51
e 9 52
e 9 54
e 9 55
e 9 57
e 9 58
e 9 61
e 9 65
e 9 67
e 9 68
e 9 69
e 9 70
e 9 71
e 9 73
e 9 74
e 9 77
e 9 78
e 9 79
e 9 81
e 9 84
e 9 85
e 9 86
e 9 88
e 9 89
e 9 90
e 9 92
e 9 95
e 9 97
e 9 102
e 9 103
e 9 106
e 9 107
e 9 108
e 9 109
e 9 110
e 9 112
e 9 113
e 9 114
e 9 116
e 9 118
e 9 119
e 9 121
e 9 122
e 9 126
e 9 127
e 9 129
e 9 130
e 9 131
e 9 136
e 9 138
e 9 139
e 10 22
e 10 23
e 10 24
e 10 25
e 10 29
e 10 30
e 10 31
e 10 32
e 10 34
e 10 36
e 10 40
e 10 42
e 10 45
e 10 46
e 10 50
e 10 52
e 10 53
e 10 54
e 10 55
e 10 56
e 10 61
e 10 62
e 10 63
e 10 65
e 10 66
e 10 68
e 10 69
e 10 70
e 10 75
e 10 76
e 10 79
e 10 80
e 10 81
e 10 82
e 10 83
e 10 84
e 10 85
e 10 90
e 10 91
e 10 94
e 10 95
e 10 96
e 10 103
e 10 105
e 10 109
e 10 110
e 10 113
e 10 114
e 10 115
e 10 116
e 10 120
e 10 122
e 10 124
e 10 126
e 10 128
e 10 135
e 10 140
e 11 26
e 11 28
e 11 29
e 11 30
e 11 31
e 11 35
e 11 37
e 11 39
e 11 40
e 11 41
e 11 43
e 11 44
e 11 45
e 11 46
e 11 48
e 11 50
e 11 52
e 11 56
e 11 57
e 11 59
e 11 60
e 11 61
e 11 67
e 11 69
e 11 76
e 11 78
e 11 79
e 11 80
e 11 81
e 11 82
e 11 83
e 11 84
e 11 85
e 11 89
e 11 91
e 11 93
e 11 94
e 11 95
e 11 96
e 11 100
e 11 102
e 11 103
e 11 107
e 11 108
e 11 109
e 11 113
e 11 114
e 11 115
e 11 116
e 11 123
e 11 124
e 11 125
e 11 131
e 11 133
e 11 134
e 11 136
e 11 137
e 11 139
e 11 140
e 12 21
e 12 24
e 12 25
e 12 26
e 12 29
e 12 35
e 12 36
e 12 37
e 12 38
e 12 41
e 12 44
e 12 48
e 12 49
e 12 50
e 12 54
e 12 56
e 12 57
e 12 58
e 12 60
e 12 62
e 12 63
e 12 64
e 12 65
e 12 66
e 12 68
e 12 71
e 12 76
e 12 78
e 12 80
e 12 81
e 12 83
e 12 86
e 12 88
e 12 89
e 12 93
e 12 95
e 12 96
e 12 98
e 12 101
e 12 102
e 12 105
e 12 106
e 12 107
e 12 110
e 12 111
e 12 113
e 12 116
e 12 118
e 12 119
e 12 120
e 12 124
e 12 127
e 12 128
e 12 131
e 12 133
e 12 136
e 12 137
e 12 138
e 12 139
e 12 140
e 13 23
e 13 25
e 13 26
e 13 27
e 13 28
e 13 30
e 13 31
e 13 33
e 13 37
e 13 39
e 13 41
e 13 43
e 13 44
e 13 47
e 13 49
e 13 51
e 13 53
e 13 55
e 13 56
e 13 57
e 13 61
e 13 62
e 13 64
e 13 66
e 13 69
e 13 70
e 13 74
e 13 75
e 13 76
e 13 78
e 13 79
e 13 82
e 13 83
e 13 91
e 13 93
e 13 94
e 13 95
e 13 96
e 13 103
e 13 107
e 13 108
e 13 109
e 13 110
e 13 112
e 13 113
e 13 114
e 13 118
e 13 119
e 13 120
e 13 121
e 13 123
e 13 124
e 13 127
e 13 128
e 13 130
e 13 132
e 13 135
e 13 136
e 13 138
e 13 139
e 14 26
e 14 27
e 14 28
e 14 29
e 14 32
e 14 33
e 14 34
e 14 35
e 14 36
e 14 38
e 14 40
e 14 41
e 14 42
e 14 43
e 14 49
e 14 52
e 14 53
e 14 55
e 14 56
e 14 57
e 14 64
e 14 65
e 14 68
e 14 70
e 14 71
e 14 75
e 14 76
e 14 81
e 14 84
e 14 88
e 14 89
e 14 92
e 14 93
e 14 94
e 14 96
e 14 97
e 14 100
e 14 103
e 14 104
e 14 105
e 14 106
e 14 107
e 14 109
e 14 110
e 14 111
e 14 112
e 14 114
e 14 115
e 14 116
e 14 118
e 14 120
e 14 123
e 14 124
e 14 125
e 14 126
e 14 131
e 14 132
e 14 135
e 14 136
e 14 138
e 14 139
e 14 140
e 15 21
e 15 28
e 15 31
e 15 34
e 15 36
e 15 39
e 15 42
e 15 43
e 15 44
e 15 45
e 15 46
e 15 48
e 15 51
e 15 54
e 15 56
e 15 57
e 15 58
e 15 59
e 15 62
e 15 64
e 15 65
e 15 68
e 15 69
e 15 70
e 15 75
e 15 76
e 15 77
e 15 79
e 15 82
e 15 83
e 15 84
e 15 87
e 15 89
e 15 91
e 15 92
e 15 94
e 15 96
e 15 100
e 15 102
e 15 103
e 15 104
e 15 106
e 15 108
e 15 109
e 15 110
e 15 111
e 15 118
e 15 120
e 15 121
e 15 123
e 15 130
e 15 133
e 15 134
e 15 136
e 15 140
e 16 21
e 16 25
e 16 27
e 16 28
e 16 29
e 16 30
e 16 31
e 16 34
e 16 36
e 16 38
e 16 40
e 16 42
e 16 43
e 16 45
e 16 46
e 16 47
e 16 48
e 16 49
e 16 50
e 16 51
e 16 57
e 16 58
e 16 59
e 16 61
e 16 62
e 16 63
e 16 65
e 16 68
e 16 70
e 16 74
e 16 77
e 16 78
e 16 79
e 16 80
e 16 82
e 16 83
e 16 84
e 16 86
e 16 91
e 16 92
e 16 93
e 16 94
e 16 95
e 16 97
e 16 103
e 16 104
e 16 105
e 16 106
e 16 110
e 16 112
e 16 113
e 16 114
e 16 115
e 16 116
e 16 117
e 16 121
e 16 123
e 16 128
e 16 131
e 16 132
e 16 133
e 16 134
e 16 135
e 16 139
e 16 140
e 17 23
e 17 28
e 17 29
e 17 34
e 17 35
e 17 36
e 17 39
e 17 42
e 17 50
e 17 51
e 17 54
e 17 55
e 17 56
e 17 58
e 17 60
e 17 61
e 17 64
e 17 65
e 17 71
e 17 73
e 17 78
e 17 79
e 17 80
e 17 82
e 17 83
e 17 84
e 17 86
e 17 88
e 17 89
e 17 90
e 17 91
e 17 92
e 17 94
e 17 96
e 17 98
e 17 99
e 17 100
e 17 101
e 17 103
e 17 104
e 17 105
e 17 106
e 17 110
e 17 111
e 17 112
e 17 113
e 17 114
e 17 115
e 17 117
e 17 121
e 17 122
e 17 124
e 17 126
e 17 127
e 17 129
e 17 131
e 17 132
e 17 133
e 17 140
e 18 21
e 18 24
e 18 25
e 18 26
e 18 28
e 18 29
e 18 31
e 18 33
e 18 37
e 18 38
e 18 40
e 18 44
e 18 46
e 18 48
e 18 49
e 18 50
e 18 53
e 18 54
e 18 56
e 18 59
e 18 61
e 18 62
e 18 65
e 18 67
e 18 68
e 18 70
e 18 73
e 18 74
e 18 81
e 18 82
e 18 83
e 18 84
e 18 87
e 18 89
e 18 90
e 18 94
e 18 98
e 18 99
e 18 104
e 18 105
e 18 106
e 18 107
e 18 111
e 18 114
e 18 117
e 18 118
e 18 119
e 18 121
e 18 122
e 18 123
e 18 127
e 18 128
e 18 130
e 18 132
e 18 133
e 18 134
e 18 136
e 18 140
e 19 21
e 19 22
e 19 24
e 19 29
e 19 30
e 19 33
e 19 35
e 19 37
e 19 41
e 19 42
e 19 43
e 19 44
e 19 48
e 19 52
e 19 54
e 19 57
e 19 59
e 19 62
e 19 64
e 19 66
e 19 68
e 19 69
e 19 70
e 19 74
e 19 76
e 19 78
e 19 80
e 19 81
e 19 82
e 19 83
e 19 84
e 19 85
e 19 86
e 19 90
e 19 96
e 19 97
e 19 105
e 19 106
e 19 107
e 19 109
e 19 110
e 19 112
e 19 115
e 19 118
e 19 119
e 19 121
e 19 125
e 19 126
e 19 128
e 19 129
e 19 130
e 19 132
e 19 134
e 19 136
e 19 137
e 20 23
e 20 25
e 20 27
e 20 28
e 20 32
e 20 33
e 20 34
e 20 35
e 20 37
e 20 38
e 20 39
e 20 41
e 20 49
e 20 51
e 20 52
e 20 53
e 20 56
e 20 57
e 20 60
e 20 61
e 20 65
e 20 69
e 20 71
e 20 73
e 20 75
e 20 77
e 20 78
e 20 82
e 20 84
e 20 85
e 20 87
e 20 88
e 20 92
e 20 94
e 20 98
e 20 99
e 20 100
e 20 102
e 20 103
e 20 104
e 20 105
e 20 107
e 20 109
e 20 110
e 20 111
e 20 112
e 20 113
e 20 117
e 20 118
e 20 120
e 20 122
e 20 123
e 20 125
e 20 126
e 20 128
e 20 129
e 20 133
e 20 135
e 20 138
e 20 139
e 21 41
e 21 42
e 21 44
e 21 46
e 21 47
e 21 49
e 21 50
e 21 52
e 21 53
e 21 54
e 21 56
e 21 57
e 21 58
e 21 61
e 21 62
e 21 63
e 21 65
e 21 66
e 21 69
e 21 70
e 21 71
e 21 75
e 21 79
e 21 81
e 21 82
e 21 85
e 21 87
e 21 89
e 21 91
e 21 93
e 21 95
e 21 97
e 21 98
e 21 99
e 21 103
e 21 104
e 21 107
e 21 110
e 21 111
e 21 113
e 21 114
e 21 119
e 21 122
e 21 123
e 21 124
e 21 127
e 21 129
e 21 132
e 21 133
e 21 135
e 21 136
e 21 137
e 21 139
e 21 140
e 22 41
e 22 43
e 22 47
e 22 48
e 22 49
e 22 50
e 22 52
e 22 54
e 22 55
e 22 56
e 22 58
e 22 59
e 22 60
e 22 63
e 22 64
e 22 65
e 22 66
e 22 67
e 22 69
e 22 72
e 22 73
e 22 75
e 22 76
e 22 77
e 22 80
e 22 81
e 22 82
e 22 83
e 22 85
e 22 86
e 22 87
e 22 88
e 22 90
e 22 91
e 22 95
e 22 101
e 22 102
e 22 105
e 22 113
e 22 117
e 22 118
e 22 120
e 22 124
e 22 127
e 22 128
e 22 129
e 22 133
e 22 135
e 22 136
e 23 41
e 23 44
e 23 48
e 23 49
e 23 50
e 23 51
e 23 53
e 23 57
e 23 58
e 23 60
e 23 62
e 23 63
e 23 65
e 23 66
e 23 67
e 23 68
e 23 69
e 23 70
e 23 76
e 23 77
e 23 78
e 23 81
e 23 85
e 23 86
e 23 90
e 23 95
e 23 96
e 23 97
e 23 98
e 23 99
e 23 100
e 23 102
e 23 106
e 23 108
e 23 110
e 23 114
e 23 115
e 23 117
e 23 119
e 23 120
e 23 123
e 23 125
e 23 126
e 23 127
e 23 132
e 23 133
e 23 136
e 23 138
e 24 44
e 24 47
e 24 48
e 24 49
e 24 50
e 24 53
e 24 55
e 24 56
e 24 62
e 24 64
e 24 65
e 24 72
e 24 74
e 24 76
e 24 79
e 24 83
e 24 86
e 24 91
e 24 94
e 24 96
e 24 100
e 24 103
e 24 105
e 24 106
e 24 107
e 24 108
e 24 110
e 24 112
e 24 113
e 24 114
e 24 119
e 24 121
e 24 122
e 24 125
e 24 127
e 24 129
e 24 132
e 24 133
e 24 134
e 24 135
e 24 136
e 24 137
e 24 138
e 25 42
e 25 44
e 25 45
e 25 48
e 25 54
e 25 56
e 25 57
e 25 59
e 25 64
e 25 65
e 25 67
e 25 68
e 25 70
e 25 71
e 25 72
e 25 73
e 25 74
e 25 75
e 25 78
e 25 80
e 25 91
e 25 92
e 25 93
e 25 94
e 25 95
e 25 97
e 25 99
e 25 108
e 25 111
e 25 113
e 25 114
e 25 119
e 25 122
e 25 124
e 25 127
e 25 128
e 25 129
e 25 130
e 25 132
e 25 135
e 25 136
e 25 138
e 25 140
e 26 41
e 26 42
e 26 43
e 26 44
e 26 45
e 26 46
e 26 55
e 26 57
e 26 59
e 26 60
e 26 64
e 26 65
e 26 67
e 26 72
e 26 73
e 26 76
e 26 77
e 26 79
e 26 84
e 26 85
e 26 92
e 26 94
e 26 96
e 26 97
e 26 99
e 26 101
e 26 102
e 26 104
e 26 105
e 26 107
e 26 108
e 26 110
e 26 111
e 26 112
e 26 121
e 26 122
e 26 123
e 26 124
e 26 125
e 26 128
e 26 130
e 26 131
e 26 132
e 26 133
e 26 135
e 26 137
e 26 140
e 27 42
e 27 43
e 27 47
e 27 50
e 27 51
e 27 52
e 27 53
e 27 55
e 27 57
e 27 58
e 27 60
e 27 61
e 27 62
e 27 63
e 27 64
e 27 65
e 27 66
e 27 72
e 27 74
e 27 75
e 27 77
e 27 78
e 27 81
e 27 83
e 27 84
e 27 85
e 27 88
e 27 89
e 27 92
e 27 93
e 27 95
e 27 98
e 27 99
e 27 100
e 27 102
e 27 107
e 27 111
e 27 112
e 27 113
e 27 114
e 27 117
e 27 122
e 27 123
e 27 124
e 27 127
e 27 128
e 27 131
e 27 132
e 27 134
e 27 135
e 27 139
e 28 43
e 28 44
e 28 50
e 28 52
e 28 56
e 28 58
e 28 59
e 28 60
e 28 64
e 28 67
e 28 68
e 28 70
e 28 71
e 28 72
e 28 74
e 28 75
e 28 77
e 28 78
e 28 82
e 28 83
e 28 85
e 28 86
e 28 88
e 28 92
e 28 99
e 28 101
e 28 102
e 28 103
e 28 104
e 28 106
e 28 107
e 28 108
e 28 109
e 28 110
e 28 111
e 28 112
e 28 113
e 28 114
e 28 116
e 28 118
e 28 122
e 28 123
e 28 124
e 28 125
e 28 126
e 28 130
e 28 132
e 28 133
e 28 134
e 28 136
e 28 138
e 28 139
e 29 45
e 29 47
e 29 50
e 29 51
e 29 52
e 29 54
e 29 55
e 29 56
e 29 57
e 29 59
e 29 60
e 29 64
e 29 65
e 29 69
e 29 73
e 29 75
e 29 79
e 29 83
e 29 90
e 29 91
e 29 93
e 29 94
e 29 95
e 29 96
e 29 98
e 29 102
e 29 104
e 29 105
e 29 106
e 29 107
e 29 110
e 29 113
e 29 116
e 29 119
e 29 121
e 29 122
e 29 124
e 29 126
e 29 129
e 29 131
e 29 132
e 29 133
e 29 138
e 30 42
e 30 44
e 30 48
e 30 49
e 30 50
e 30 53
e 30 56
e 30 57
e 30 58
e 30 59
e 30 63
e 30 64
e 30 65
e 30 66
e 30 67
e 30 69
e 30 72
e 30 75
e 30 77
e 30 80
e 30 81
e 30 84
e 30 85
e 30 86
e 30 88
e 30 89
e 30 90
e 30 91
e 30 95
e 30 98
e 30 100
e 30 103
e 30 105
e 30 106
e 30 109
e 30 110
e 30 111
e 30 112
e 30 113
e 30 117
e 30 120
e 30 121
e 30 123
e 30 126
e 30 127
e 30 128
e 30 129
e 30 132
e 30 133
e 30 138
e 30 139
e 31 46
e 31 47
e 31 49
e 31 52
e 31 54
e 31 55
e 31 56
e 31 59
e 31 62
e 31 66
e 31 67
e 31 69
e 31 70
e 31 72
e 31 75
e 31 77
e 31 78
e 31 80
e 31 82
e 31 86
e 31 88
e 31 90
e 31 91
e 31 95
e 31 96
e 31 97
e 31 98
e 31 99
e 31 100
e 31 101
e 31 102
e 31 103
e 31 106
e 31 108
e 31 110
e 31 111
e 31 114
e 31 115
e 31 116
e 31 118
e 31 119
e 31 120
e 31 121
e 31 122
e 31 128
e 31 129
e 31 130
e 31 132
e 31 134
e 31 135
e 31 136
e 31 138
e 31 140
e 32 41
e 32 44
e 32 45
e 32 49
e 32 50
e 32 51
e 32 55
e 32 57
e 32 58
e 32 60
e 32 61
e 32 65
e 32 68
e 32 73
e 32 76
e 32 83
e 32 85
e 32 86
e 32 89
e 32 91
e 32 92
e 32 93
e 32 94
e 32 96
e 32 101
e 32 103
e 32 105
e 32 107
e 32 109
e 32 111
e 32 113
e 32 114
e 32 115
e 32 120
e 32 121
e 32 124
e 32 126
e 32 128
e 32 129
e 32 130
e 32 131
e 32 134
e 32 135
e 32 136
e 32 137
e 32 138
e 32 139
e 33 42
e 33 43
e 33 47
e 33 48
e 33 51
e 33 54
e 33 55
e 33 56
e 33 59
e 33 60
e 33 61
e 33 63
e 33 64
e 33 65
e 33 66
e 33 67
e 33 70
e 33 72
e 33 75
e 33 76
e 33 77
e 33 80
e 33 81
e 33 82
e 33 83
e 33 85
e 33 86
e 33 88
e 33 89
e 33 90
e 33 91
e 33 92
e 33 94
e 33 96
e 33 97
e 33 98
e 33 99
e 33 100
e 33 101
e 33 102
e 33 104
e 33 105
e 33 106
e 33 107
e 33 110
e 33 111
e 33 114
e 33 116
e 33 119
e 33 122
e 33 126
e 33 129
e 33 132
e 33 133
e 33 135
e 33 136
e 33 137
e 33 138
e 33 139
e 33 140
e 34 41
e 34 45
e 34 48
e 34 54
e 34 57
e 34 61
e 34 64
e 34 65
e 34 66
e 34 67
e 34 68
e 34 69
e 34 75
e 34 76
e 34 77
e 34 80
e 34 82
e 34 83
e 34 84
e 34 85
e 34 88
e 34 89
e 34 92
e 34 93
e 34 94
e 34 99
e 34 102
e 34 103
e 34 104
e 34 105
e 34 108
e 34 109
e 34 111
e 34 112
e 34 115
e 34 116
e 34 119
e 34 121
e 34 123
e 34 124
e 34 127
e 34 129
e 34 130
e 34 131
e 34 133
e 34 134
e 34 135
e 34 137
e 34 138
e 34 139
e 34 140
e 35 41
e 35 42
e 35 44
e 35 46
e 35 51
e 35 52
e 35 53
e 35 54
e 35 57
e 35 60
e 35 64
e 35 70
e 35 74
e 35 77
e 35 79
e 35 81
e 35 83
e 35 84
e 35 86
e 35 88
e 35 90
e 35 92
e 35 93
e 35 99
e 35 100
e 35 101
e 35 102
e 35 103
e 35 106
e 35 109
e 35 111
e 35 112
e 35 113
e 35 116
e 35 117
e 35 119
e 35 123
e 35 124
e 35 125
e 35 126
e 35 128
e 35 129
e 35 130
e 35 133
e 35 134
e 35 138
e 35 140
e 36 41
e 36 42
e 36 45
e 36 48
e 36 49
e 36 50
e 36 55
e 36 59
e 36 60
e 36 63
e 36 66
e 36 72
e 36 74
e 36 75
e 36 76
e 36 77
e 36 80
e 36 82
e 36 85
e 36 86
e 36 89
e 36 93
e 36 94
e 36 95
e 36 96
e 36 98
e 36 99
e 36 100
e 36 101
e 36 102
e 36 106
e 36 110
e 36 112
e 36 114
e 36 115
e 36 116
e 36 117
e 36 118
e 36 124
e 36 128
e 36 129
e 36 132
e 36 134
e 36 136
e 36 137
e 36 138
e 36 139
e 36 140
e 37 46
e 37 48
e 37 50
e 37 51
e 37 52
e 37 56
e 37 58
e 37 62
e 37 63
e 37 66
e 37 68
e 37 69
e 37 70
e 37 72
e 37 73
e 37 74
e 37 75
e 37 76
e 37 78
e 37 79
e 37 80
e 37 83
e 37 84
e 37 87
e 37 89
e 37 90
e 37 92
e 37 93
e 37 94
e 37 96
e 37 103
e 37 106
e 37 108
e 37 109
e 37 110
e 37 113
e 37 114
e 37 116
e 37 117
e 37 120
e 37 121
e 37 122
e 37 123
e 37 125
e 37 126
e 37 127
e 37 130
e 37 133
e 37 134
e 37 135
e 37 136
e 37 137
e 37 138
e 38 42
e 38 43
e 38 44
e 38 45
e 38 54
e 38 55
e 38 56
e 38 57
e 38 59
e 38 61
e 38 63
e 38 65
e 38 66
e 38 67
e 38 69
e 38 71
e 38 72
e 38 73
e 38 74
e 38 81
e 38 83
e 38 84
e 38 88
e 38 89
e 38 90
e 38 91
e 38 93
e 38 95
e 38 96
e 38 97
e 38 98
e 38 99
e 38 102
e 38 104
e 38 108
e 38 109
e 38 111
e 38 114
e 38 115
e 38 118
e 38 129
e 38 130
e 38 132
e 38 137
e 39 41
e 39 42
e 39 46
e 39 51
e 39 54
e 39 55
e 39 56
e 39 57
e 39 58
e 39 63
e 39 64
e 39 72
e 39 74
e 39 76
e 39 77
e 39 80
e 39 81
e 39 82
e 39 83
e 39 92
e 39 93
e 39 94
e 39 95
e 39 98
e 39 99
e 39 102
e 39 103
e 39 105
e 39 106
e 39 108
e 39 110
e 39 111
e 39 112
e 39 113
e 39 115
e 39 116
e 39 118
e 39 120
e 39 128
e 39 130
e 39 131
e 39 132
e 39 138
e 39 139
e 39 140
e 40 41
e 40 46
e 40 47
e 40 48
e 40 50
e 40 57
e 40 58
e 40 60
e 40 62
e 40 63
e 40 68
e 40 70
e 40 71
e 40 73
e 40 75
e 40 84
e 40 86
e 40 87
e 40 89
e 40 90
e 40 92
e 40 94
e 40 95
e 40 97
e 40 99
e 40 100
e 40 101
e 40 103
e 40 104
e 40 105
e 40 107
e 40 108
e 40 109
e 40 115
e 40 116
e 40 118
e 40 119
e 40 121
e 40 125
e 40 126
e 40 127
e 40 129
e 40 132
e 40 135
e 40 136
e 40 137
e 40 138
e 40 139
e 40 140
e 41 61
e 41 62
e 41 63
e 41 64
e 41 66
e 41 67
e 41 70
e 41 73
e 41 76
e 41 78
e 41 81
e 41 82
e 41 83
e 41 86
e 41 87
e 41 88
e 41 91
e 41 92
e 41 93
e 41 94
e 41 95
e 41 97
e 41 100
e 41 101
e 41 102
e 41 106
e 41 107
e 41 115
e 41 117
e 41 127
e 41 128
e 41 132
e 41 133
e 41 137
e 41 138
e 42 61
e 42 64
e 42 66
e 42 68
e 42 69
e 42 71
e 42 72
e 42 76
e 42 78
e 42 79
e 42 82
e 42 84
e 42 86
e 42 87
e 42 89
e 42 90
e 42 92
e 42 94
e 42 96
e 42 97
e 42 101
e 42 109
e 42 115
e 42 121
e 42 122
e 42 123
e 42 124
e 42 128
e 42 129
e 42 133
e 42 134
e 42 135
e 42 139
e 42 140
e 43 63
e 43 64
e 43 65
e 43 68
e 43 70
e 43 71
e 43 74
e 43 75
e 43 80
e 43 82
e 43 83
e 43 84
e 43 86
e 43 87
e 43 88
e 43 89
e 43 91
e 43 92
e 43 93
e 43 94
e 43 95
e 43 96
e 43 97
e 43 98
e 43 99
e 43 102
e 43 104
e 43 105
e 43 106
e 43 110
e 43 111
e 43 113
e 43 114
e 43 116
e 43 117
e 43 120
e 43 122
e 43 125
e 43 128
e 43 129
e 43 130
e 43 134
e 43 136
e 43 137
e 43 138
e 43 139
e 43 140
e 44 62
e 44 63
e 44 64
e 44 67
e 44 68
e 44 70
e 44 71
e 44 72
e 44 73
e 44 75
e 44 82
e 44 85
e 44 86
e 44 87
e 44 88
e 44 89
e 44 91
e 44 92
e 44 94
e 44 95
e 44 96
e 44 98
e 44 103
e 44 104
e 44 105
e 44 110
e 44 112
e 44 114
e 44 115
e 44 117
e 44 119
e 44 120
e 44 121
e 44 124
e 44 125
e 44 126
e 44 128
e 44 129
e 44 130
e 44 131
e 44 133
e 44 134
e 44 137
e 44 138
e 44 139
e 44 140
e 45 62
e 45 65
e 45 68
e 45 70
e 45 72
e 45 73
e 45 74
e 45 77
e 45 78
e 45 85
e 45 88
e 45 89
e 45 90
e 45 91
e 45 92
e 45 93
e 45 95
e 45 96
e 45 97
e 45 98
e 45 101
e 45 102
e 45 107
e 45 108
e 45 112
e 45 116
e 45 118
e 45 119
e 45 121
e 45 124
e 45 126
e 45 127
e 45 130
e 45 131
e 45 133
e 45 135
e 45 137
e 46 62
e 46 65
e 46 67
e 46 68
e 46 69
e 46 71
e 46 72
e 46 73
e 46 74
e 46 75
e 46 78
e 46 82
e 46 84
e 46 85
e 46 86
e 46 89
e 46 91
e 46 92
e 46 95
e 46 97
e 46 99
e 46 101
e 46 103
e 46 106
e 46 107
e 46 108
e 46 111
e 46 112
e 46 113
e 46 114
e 46 116
e 46 118
e 46 121
e 46 122
e 46 123
e 46 125
e 46 129
e 46 137
e 46 138
e 47 61
e 47 63
e 47 66
e 47 67
e 47 69
e 47 71
e 47 73
e 47 76
e 47 77
e 47 82
e 47 85
e 47 86
e 47 87
e 47 88
e 47 89
e 47 90
e 47 92
e 47 94
e 47 95
e 47 97
e 47 98
e 47 99
e 47 103
e 47 105
e 47 106
e 47 107
e 47 108
e 47 111
e 47 112
e 47 115
e 47 116
e 47 122
e 47 123
e 47 126
e 47 128
e 47 129
e 47 133
e 47 136
e 47 138
e 47 140
e 48 61
e 48 62
e 48 68
e 48 71
e 48 74
e 48 76
e 48 77
e 48 79
e 48 81
e 48 82
e 48 84
e 48 85
e 48 87
e 48 90
e 48 91
e 48 96
e 48 97
e 48 98
e 48 99
e 48 101
e 48 103
e 48 109
e 48 112
e 48 113
e 48 115
e 48 117
e 48 118
e 48 119
e 48 124
e 48 126
e 48 129
e 48 133
e 48 136
e 48 137
e 48 139
e 49 61
e 49 63
e 49 64
e 49 67
e 49 69
e 49 73
e 49 74
e 49 75
e 49 76
e 49 78
e 49 81
e 49 84
e 49 85
e 49 86
e 49 88
e 49 90
e 49 94
e 49 95
e 49 97
e 49 98
e 49 101
e 49 104
e 49 109
e 49 110
e 49 111
e 49 112
e 49 113
e 49 115
e 49 116
e 49 117
e 49 121
e 49 123
e 49 124
e 49 125
e 49 127
e 49 130
e 49 131
e 49 134
e 49 135
e 49 136
e 49 137
e 49 140
e 50 61
e 50 64
e 50 69
e 50 70
e 50 71
e 50 72
e 50 73
e 50 75
e 50 78
e 50 79
e 50 80
e 50 81
e 50 84
e 50 85
e 50 86
e 50 89
e 50 91
e 50 94
e 50 96
e 50 97
e 50 99
e 50 101
e 50 102
e 50 103
e 50 106
e 50 108
e 50 111
e 50 115
e 50 116
e 50 118
e 50 120
e 50 121
e 50 122
e 50 123
e 50 125
e 50 126
e 50 127
e 50 131
e 50 136
e 51 61
e 51 63
e 51 64
e 51 65
e 51 68
e 51 73
e 51 74
e 51 80
e 51 83
e 51 84
e 51 85
e 51 86
e 51 88
e 51 89
e 51 94
e 51 96
e 51 97
e 51 98
e 51 99
e 51 100
e 51 104
e 51 105
e 51 106
e 51 111
e 51 113
e 51 116
e 51 118
e 51 120
e 51 124
e 51 125
e 51 126
e 51 128
e 51 129
e 51 132
e 51 135
e 51 136
e 51 138
e 51 139
e 51 140
e 52 61
e 52 63
e 52 65
e 52 71
e 52 72
e 52 75
e 52 76
e 52 77
e 52 79
e 52 81
e 52 83
e 52 85
e 52 88
e 52 89
e 52 91
e 52 92
e 52 93
e 52 97
e 52 98
e 52 101
e 52 104
e 52 105
e 52 106
e 52 109
e 52 112
e 52 115
e 52 117
e 52 118
e 52 119
e 52 120
e 52 122
e 52 123
e 52 124
e 52 126
e 52 127
e 52 128
e 52 129
e 52 130
e 52 131
e 52 132
e 52 134
e 52 135
e 52 139
e 53 61
e 53 63
e 53 64
e 53 66
e 53 67
e 53 68
e 53 69
e 53 70
e 53 73
e 53 78
e 53 80
e 53 81
e 53 82
e 53 83
e 53 85
e 53 87
e 53 88
e 53 89
e 53 94
e 53 96
e 53 97
e 53 100
e 53 104
e 53 107
e 53 111
e 53 112
e 53 113
e 53 115
e 53 116
e 53 117
e 53 118
e 53 119
e 53 120
e 53 122
e 53 123
e 53 124
e 53 128
e 53 130
e 53 133
e 53 135
e 53 140
e 54 61
e 54 63
e 54 68
e 54 69
e 54 74
e 54 76
e 54 77
e 54 80
e 54 81
e 54 83
e 54 84
e 54 85
e 54 87
e 54 90
e 54 92
e 54 93
e 54 94
e 54 96
e 54 97
e 54 99
e 54 102
e 54 106
e 54 107
e 54 110
e 54 115
e 54 116
e 54 119
e 54 120
e 54 121
e 54 122
e 54 124
e 54 125
e 54 127
e 54 128
e 54 130
e 54 131
e 54 133
e 54 134
e 54 137
e 54 138
e 54 140
e 55 66
e 55 68
e 55 69
e 55 73
e 55 74
e 55 75
e 55 76
e 55 78
e 55 81
e 55 83
e 55 84
e 55 88
e 55 89
e 55 91
e 55 93
e 55 95
e 55 96
e 55 97
e 55 102
e 55 103
e 55 104
e 55 106
e 55 109
e 55 111
e 55 112
e 55 113
e 55 115
e 55 119
e 55 122
e 55 125
e 55 126
e 55 127
e 55 129
e 55 130
e 55 132
e 55 133
e 55 136
e 55 137
e 55 139
e 56 61
e 56 64
e 56 69
e 56 70
e 56 73
e 56 76
e 56 78
e 56 82
e 56 83
e 56 87
e 56 89
e 56 90
e 56 91
e 56 94
e 56 95
e 56 100
e 56 101
e 56 103
e 56 106
e 56 113
e 56 119
e 56 121
e 56 124
e 56 127
e 56 128
e 56 133
e 56 135
e 57 61
e 57 62
e 57 63
e 57 64
e 57 66
e 57 72
e 57 75
e 57 78
e 57 80
e 57 81
e 57 85
e 57 90
e 57 92
e 57 94
e 57 97
e 57 102
e 57 103
e 57 108
e 57 109
e 57 111
e 57 112
e 57 115
e 57 118
e 57 119
e 57 120
e 57 123
e 57 125
e 57 126
e 57 130
e 57 131
e 57 134
e 57 137
e 57 138
e 57 139
e 57 140
e 58 63
e 58 66
e 58 67
e 58 69
e 58 71
e 58 72
e 58 73
e 58 76
e 58 77
e 58 80
e 58 83
e 58 85
e 58 86
e 58 87
e 58 89
e 58 93
e 58 94
e 58 95
e 58 96
e 58 99
e 58 100
e 58 101
e 58 103
e 58 104
e 58 106
e 58 109
e 58 110
e 58 111
e 58 113
e 58 114
e 58 115
e 58 117
e 58 118
e 58 120
e 58 123
e 58 124
e 58 125
e 58 126
e 58 128
e 58 131
e 58 132
e 58 134
e 58 135
e 58 138
e 58 140
e 59 61
e 59 64
e 59 65
e 59 66
e 59 67
e 59 69
e 59 70
e 59 72
e 59 77
e 59 80
e 59 82
e 59 83
e 59 87
e 59 91
e 59 92
e 59 93
e 59 94
e 59 95
e 59 97
e 59 99
e 59 101
e 59 105
e 59 107
e 59 108
e 59 109
e 59 111
e 59 112
e 59 117
e 59 118
e 59 119
e 59 121
e 59 123
e 59 127
e 59 129
e 59 131
e 59 134
e 59 136
e 59 138
e 59 139
e 60 62
e 60 63
e 60 64
e 60 66
e 60 69
e 60 72
e 60 73
e 60 75
e 60 80
e 60 81
e 60 82
e 60 83
e 60 84
e 60 85
e 60 87
e 60 88
e 60 89
e 60 90
e 60 92
e 60 93
e 60 94
e 60 95
e 60 98
e 60 103
e 60 104
e 60 105
e 60 106
e 60 107
e 60 113
e 60 115
e 60 116
e 60 117
e 60 120
e 60 121
e 60 128
e 60 129
e 60 130
e 60 131
e 60 133
e 60 134
e 60 135
e 60 136
e 60 137
e 60 138
e 60 139
e 60 140
e 61 81
e 61 82
e 61 83
e 61 84
e 61 86
e 61 87
e 61 88
e 61 89
e 61 96
e 61 99
e 61 101
e 61 102
e 61 103
e 61 104
e 61 106
e 61 107
e 61 110
e 61 112
e 61 113
e 61 114
e 61 115
e 61 117
e 61 118
e 61 120
e 61 121
e 61 122
e 61 123
e 61 124
e 61 126
e 61 128
e 61 129
e 61 130
e 61 132
e 61 133
e 61 135
e 61 136
e 61 138
e 61 140
e 62 82
e 62 83
e 62 86
e 62 90
e 62 91
e 62 92
e 62 96
e 62 99
e 62 102
e 62 104
e 62 106
e 62 107
e 62 108
e 62 109
e 62 110
e 62 112
e 62 113
e 62 115
e 62 116
e 62 118
e 62 120
e 62 123
e 62 127
e 62 128
e 62 131
e 62 133
e 62 134
e 62 138
e 62 140
e 63 81
e 63 83
e 63 85
e 63 87
e 63 89
e 63 94
e 63 99
e 63 100
e 63 102
e 63 103
e 63 104
e 63 106
e 63 107
e 63 110
e 63 111
e 63 112
e 63 114
e 63 115
e 63 116
e 63 117
e 63 118
e 63 119
e 63 125
e 63 126
e 63 127
e 63 128
e 63 129
e 63 130
e 63 133
e 63 135
e 63 136
e 63 138
e 64 84
e 64 85
e 64 88
e 64 89
e 64 91
e 64 93
e 64 94
e 64 97
e 64 98
e 64 99
e 64 101
e 64 103
e 64 107
e 64 109
e 64 110
e 64 112
e 64 116
e 64 118
e 64 119
e 64 120
e 64 121
e 64 122
e 64 128
e 64 131
e 64 135
e 64 140
e 65 81
e 65 82
e 65 89
e 65 94
e 65 96
e 65 101
e 65 102
e 65 103
e 65 104
e 65 105
e 65 106
e 65 107
e 65 108
e 65 111
e 65 113
e 65 114
e 65 116
e 65 120
e 65 121
e 65 123
e 65 125
e 65 127
e 65 128
e 65 129
e 65 130
e 65 131
e 65 134
e 65 139
e 65 140
e 66 83
e 66 84
e 66 85
e 66 87
e 66 88
e 66 89
e 66 90
e 66 92
e 66 93
e 66 101
e 66 103
e 66 104
e 66 105
e 66 111
e 66 112
e 66 114
e 66 116
e 66 120
e 66 121
e 66 122
e 66 124
e 66 126
e 66 127
e 66 131
e 66 134
e 66 135
e 66 138
e 66 139
e 66 140
e 67 82
e 67 83
e 67 84
e 67 87
e 67 88
e 67 89
e 67 90
e 67 93
e 67 94
e 67 98
e 67 99
e 67 101
e 67 102
e 67 103
e 67 106
e 67 108
e 67 111
e 67 112
e 67 115
e 67 116
e 67 118
e 67 119
e 67 120
e 67 122
e 67 123
e 67 126
e 67 128
e 67 130
e 67 131
e 67 132
e 67 134
e 67 135
e 67 137
e 67 138
e 67 140
e 68 82
e 68 83
e 68 86
e 68 88
e 68 95
e 68 97
e 68 98
e 68 100
e 68 101
e 68 102
e 68 104
e 68 106
e 68 107
e 68 110
e 68 111
e 68 114
e 68 118
e 68 119
e 68 120
e 68 122
e 68 127
e 68 128
e 68 129
e 68 130
e 68 133
e 68 134
e 68 137
e 68 140
e 69 82
e 69 85
e 69 86
e 69 88
e 69 90
e 69 92
e 69 95
e 69 96
e 69 97
e 69 98
e 69 99
e 69 101
e 69 103
e 69 104
e 69 105
e 69 107
e 69 108
e 69 109
e 69 110
e 69 111
e 69 113
e 69 114
e 69 115
e 69 117
e 69 118
e 69 119
e 69 120
e 69 121
e 69 122
e 69 123
e 69 124
e 69 126
e 69 129
e 69 131
e 69 134
e 69 135
e 69 136
e 69 138
e 69 140
e 70 82
e 70 85
e 70 86
e 70 87
e 70 88
e 70 89
e 70 90
e 70 98
e 70 99
e 70 100
e 70 102
e 70 103
e 70 105
e 70 108
e 70 109
e 70 110
e 70 111
e 70 112
e 70 113
e 70 115
e 70 116
e 70 119
e 70 120
e 70 121
e 70 124
e 70 129
e 70 130
e 70 132
e 70 135
e 70 136
e 70 138
e 70 140
e 71 82
e 71 84
e 71 85
e 71 86
e 71 87
e 71 91
e 71 95
e 71 97
e 71 98
e 71 103
e 71 104
e 71 109
e 71 113
e 71 114
e 71 116
e 71 119
e 71 122
e 71 123
e 71 126
e 71 128
e 71 131
e 71 134
e 71 136
e 72 81
e 72 82
e 72 83
e 72 86
e 72 87
e 72 90
e 72 91
e 72 94
e 72 95
e 72 97
e 72 98
e 72 99
e 72 100
e 72 101
e 72 103
e 72 104
e 72 106
e 72 113
e 72 122
e 72 124
e 72 126
e 72 130
e 72 131
e 72 135
e 72 140
e 73 84
e 73 85
e 73 86
e 73 88
e 73 89
e 73 90
e 73 93
e 73 95
e 73 97
e 73 98
e 73 99
e 73 100
e 73 101
e 73 104
e 73 107
e 73 108
e 73 110
e 73 111
e 73 112
e 73 114
e 73 119
e 73 120
e 73 122
e 73 123
e 73 126
e 73 131
e 73 132
e 73 133
e 73 134
e 73 135
e 73 136
e 73 137
e 73 138
e 74 81
e 74 82
e 74 83
e 74 85
e 74 86
e 74 89
e 74 90
e 74 92
e 74 95
e 74 97
e 74 98
e 74 107
e 74 108
e 74 109
e 74 111
e 74 113
e 74 114
e 74 117
e 74 118
e 74 119
e 74 120
e 74 128
e 74 129
e 74 131
e 74 132
e 74 135
e 74 136
e 74 137
e 74 138
e 74 139
e 74 140
e 75 82
e 75 83
e 75 84
e 75 85
e 75 86
e 75 90
e 75 91
e 75 92
e 75 93
e 75 95
e 75 99
e 75 100
e 75 102
e 75 104
e 75 105
e 75 106
e 75 108
e 75 111
e 75 112
e 75 113
e 75 114
e 75 115
e 75 118
e 75 120
e 75 124
e 75 125
e 75 126
e 75 127
e 75 128
e 75 130
e 75 133
e 75 134
e 75 136
e 75 137
e 75 138
e 75 139
e 75 140
e 76 83
e 76 84
e 76 85
e 76 87
e 76 89
e 76 91
e 76 92
e 76 94
e 76 95
e 76 97
e 76 98
e 76 105
e 76 111
e 76 112
e 76 118
e 76 120
e 76 122
e 76 123
e 76 125
e 76 128
e 76 129
e 76 130
e 76 131
e 76 137
e 77 83
e 77 90
e 77 91
e 77 95
e 77 99
e 77 101
e 77 104
e 77 110
e 77 111
e 77 112
e 77 113
e 77 116
e 77 117
e 77 119
e 77 120
e 77 122
e 77 123
e 77 126
e 77 128
e 77 129
e 77 132
e 77 134
e 77 136
e 77 138
e 77 139
e 78 83
e 78 85
e 78 86
e 78 88
e 78 89
e 78 90
e 78 91
e 78 92
e 78 93
e 78 96
e 78 98
e 78 100
e 78 101
e 78 103
e 78 105
e 78 106
e 78 110
e 78 112
e 78 113
e 78 115
e 78 117
e 78 121
e 78 122
e 78 123
e 78 124
e 78 125
e 78 127
e 78 128
e 78 133
e 78 135
e 78 136
e 79 81
e 79 82
e 79 83
e 79 85
e 79 86
e 79 88
e 79 89
e 79 90
e 79 91
e 79 92
e 79 93
e 79 96
e 79 98
e 79 99
e 79 100
e 79 102
e 79 105
e 79 111
e 79 115
e 79 116
e 79 120
e 79 123
e 79 125
e 79 126
e 79 129
e 79 130
e 79 133
e 79 135
e 79 137
e 79 138
e 79 140
e 80 81
e 80 83
e 80 87
e 80 88
e 80 90
e 80 91
e 80 92
e 80 96
e 80 97
e 80 100
e 80 101
e 80 104
e 80 105
e 80 107
e 80 108
e 80 109
e 80 110
e 80 112
e 80 113
e 80 115
e 80 118
e 80 120
e 80 121
e 80 122
e 80 125
e 80 127
e 80 131
e 80 132
e 80 133
e 80 135
e 80 136
e 80 137
e 80 138
e 80 140
e 81 103
e 81 106
e 81 108
e 81 109
e 81 110
e 81 111
e 81 114
e 81 115
e 81 117
e 81 119
e 81 123
e 81 128
e 81 130
e 81 131
e 81 132
e 81 133
e 81 134
e 81 135
e 81 136
e 81 138
e 81 140
e 82 104
e 82 105
e 82 107
e 82 108
e 82 109
e 82 110
e 82 112
e 82 113
e 82 115
e 82 116
e 82 117
e 82 118
e 82 120
e 82 123
e 82 126
e 82 127
e 82 132
e 82 133
e 82 135
e 82 136
e 82 138
e 82 140
e 83 102
e 83 104
e 83 107
e 83 109
e 83 110
e 83 112
e 83 113
e 83 116
e 83 118
e 83 119
e 83 122
e 83 123
e 83 127
e 83 128
e 83 130
e 83 131
e 83 136
e 83 137
e 83 138
e 83 140
e 84 102
e 84 103
e 84 106
e 84 107
e 84 108
e 84 109
e 84 110
e 84 111
e 84 113
e 84 114
e 84 115
e 84 118
e 84 119
e 84 123
e 84 124
e 84 127
e 84 128
e 84 129
e 84 132
e 84 133
e 84 136
e 84 137
e 84 138
e 84 139
e 85 102
e 85 104
e 85 106
e 85 107
e 85 109
e 85 110
e 85 112
e 85 113
e 85 115
e 85 117
e 85 119
e 85 121
e 85 123
e 85 124
e 85 126
e 85 127
e 85 129
e 85 130
e 85 133
e 85 140
e 86 102
e 86 106
e 86 107
e 86 108
e 86 109
e 86 111
e 86 112
e 86 113
e 86 119
e 86 124
e 86 128
e 86 130
e 86 131
e 86 132
e 86 135
e 86 137
e 86 138
e 86 139
e 86 140
e 87 102
e 87 103
e 87 105
e 87 110
e 87 111
e 87 112
e 87 114
e 87 121
e 87 123
e 87 124
e 87 128
e 87 130
e 87 134
e 87 135
e 87 137
e 87 138
e 87 140
e 88 101
e 88 102
e 88 107
e 88 109
e 88 110
e 88 111
e 88 115
e 88 117
e 88 119
e 88 120
e 88 121
e 88 122
e 88 125
e 88 126
e 88 127
e 88 128
e 88 129
e 88 132
e 88 133
e 88 136
e 88 139
e 89 102
e 89 105
e 89 107
e 89 108
e 89 110
e 89 111
e 89 114
e 89 115
e 89 116
e 89 118
e 89 120
e 89 125
e 89 128
e 89 130
e 89 132
e 89 133
e 89 134
e 89 135
e 89 137
e 89 139
e 89 140
e 90 103
e 90 104
e 90 105
e 90 106
e 90 109
e 90 110
e 90 111
e 90 115
e 90 117
e 90 118
e 90 119
e 90 120
e 90 122
e 90 123
e 90 126
e 90 127
e 90 128
e 90 129
e 90 131
e 90 132
e 90 134
e 90 137
e 90 140
e 91 102
e 91 103
e 91 104
e 91 106
e 91 107
e 91 108
e 91 109
e 91 110
e 91 112
e 91 117
e 91 118
e 91 119
e 91 121
e 91 122
e 91 124
e 91 127
e 91 128
e 91 129
e 91 131
e 91 132
e 91 134
e 91 136
e 91 137
e 92 104
e 92 105
e 92 108
e 92 109
e 92 113
e 92 114
e 92 115
e 92 117
e 92 118
e 92 120
e 92 121
e 92 124
e 92 128
e 92 131
e 92 132
e 92 140
e 93 101
e 93 102
e 93 103
e 93 104
e 93 106
e 93 107
e 93 108
e 93 109
e 93 110
e 93 112
e 93 114
e 93 118
e 93 119
e 93 120
e 93 121
e 93 122
e 93 124
e 93 126
e 93 129
e 93 132
e 93 133
e 93 135
e 93 138
e 93 140
e 94 104
e 94 105
e 94 106
e 94 107
e 94 108
e 94 111
e 94 112
e 94 113
e 94 116
e 94 117
e 94 118
e 94 120
e 94 122
e 94 123
e 94 124
e 94 125
e 94 126
e 94 128
e 94 130
e 94 131
e 94 133
e 94 135
e 94 136
e 94 137
e 94 138
e 94 139
e 95 101
e 95 102
e 95 103
e 95 104
e 95 106
e 95 107
e 95 111
e 95 112
e 95 113
e 95 114
e 95 115
e 95 117
e 95 118
e 95 120
e 95 121
e 95 123
e 95 128
e 95 129
e 95 130
e 95 131
e 95 132
e 95 137
e 95 139
e 95 140
e 96 103
e 96 104
e 96 105
e 96 110
e 96 111
e 96 112
e 96 114
e 96 115
e 96 116
e 96 117
e 96 118
e 96 119
e 96 120
e 96 121
e 96 123
e 96 125
e 96 128
e 96 129
e 96 130
e 96 131
e 96 133
e 96 135
e 96 136
e 97 107
e 97 113
e 97 114
e 97 115
e 97 116
e 97 119
e 97 121
e 97 123
e 97 125
e 97 128
e 97 132
e 97 133
e 97 134
e 97 137
e 97 138
e 97 139
e 98 101
e 98 103
e 98 106
e 98 108
e 98 109
e 98 111
e 98 112
e 98 114
e 98 115
e 98 120
e 98 121
e 98 122
e 98 123
e 98 124
e 98 128
e 98 130
e 98 131
e 98 132
e 98 134
e 98 136
e 98 138
e 99 101
e 99 103
e 99 104
e 99 105
e 99 107
e 99 108
e 99 111
e 99 112
e 99 113
e 99 114
e 99 115
e 99 117
e 99 119
e 99 123
e 99 128
e 99 129
e 99 130
e 99 131
e 99 132
e 99 133
e 99 134
e 99 140
e 100 102
e 100 104
e 100 107
e 100 109
e 100 111
e 100 112
e 100 114
e 100 115
e 100 117
e 100 118
e 100 123
e 100 124
e 100 125
e 100 126
e 100 127
e 100 129
e 100 132
e 100 137
e 100 138
e 100 140
e 101 123
e 101 126
e 101 129
e 101 130
e 101 131
e 101 132
e 101 133
e 101 134
e 101 136
e 101 138
e 101 140
e 102 121
e 102 123
e 102 127
e 102 128
e 102 129
e 102 133
e 102 134
e 102 135
e 102 138
e 102 139
e 103 121
e 103 122
e 103 123
e 103 125
e 103 127
e 103 130
e 103 132
e 103 133
e 103 135
e 103 136
e 103 137
e 103 138
e 103 140
e 104 122
e 104 134
e 104 135
e 104 137
e 104 138
e 104 139
e 105 121
e 105 124
e 105 129
e 105 131
e 105 132
e 105 133
e 105 135
e 105 136
e 105 138
e 105 140
e 106 122
e 106 123
e 106 124
e 106 125
e 106 129
e 106 132
e 106 133
e 106 134
e 106 136
e 107 121
e 107 125
e 107 127
e 107 134
e 107 136
e 107 140
e 108 122
e 108 123
e 108 128
e 108 129
e 108 132
e 108 136
e 108 139
e 109 121
e 109 122
e 109 126
e 109 129
e 109 133
e 109 136
e 109 137
e 109 139
e 110 121
e 110 123
e 110 124
e 110 125
e 110 126
e 110 127
e 110 129
e 110 132
e 110 133
e 110 134
e 110 135
e 110 137
e 110 138
e 110 140
e 111 128
e 111 129
e 111 130
e 111 131
e 111 132
e 111 134
e 111 139
e 112 124
e 112 125
e 112 126
e 112 127
e 112 133
e 112 134
e 112 136
e 112 137
e 113 125
e 113 127
e 113 132
e 113 134
e 113 135
e 113 138
e 113 139
e 114 121
e 114 124
e 114 126
e 114 131
e 114 133
e 114 134
e 114 136
e 114 137
e 115 121
e 115 129
e 115 130
e 115 132
e 115 136
e 115 137
e 115 139
e 115 140
e 116 121
e 116 124
e 116 125
e 116 129
e 116 132
e 116 133
e 116 134
e 116 138
e 116 139
e 117 122
e 117 123
e 117 124
e 117 128
e 117 131
e 117 137
e 117 140
e 118 124
e 118 127
e 118 128
e 118 131
e 118 134
e 118 137
e 118 138
e 118 139
e 118 140
e 119 121
e 119 123
e 119 125
e 119 126
e 119 127
e 119 130
e 119 134
e 119 136
e 119 137
e 119 139
e 120 122
e 120 123
e 120 128
e 120 129
e 120 131
e 120 133
e 120 137
e 120 138
e 120 139
e 120 140
