c FILE: balanced_graphs/balanced_60_3_25_3.col
c
c DESCRIPTION: Random balanced graph, 60 nodes,
c              partitions 3
c              edge probability 0.25
c
c G(60,3,0.25) graph
c number of vertices : 60
c max number of edges: 1770
c edge probability   : 0.25
c
c           Graph Stats
c number of vertices  : 60
c nonisolated vertices: 60
c number of edges     : 307
c edge density        : 0.1734
c max degree          : 20
c avg degree          : 10.23
c min degree          : 5
c
p col 60 307
e 1 25
e 1 26
e 1 31
e 1 36
e 1 37
e 1 47
e 1 49
e 1 54
e 1 55
e 2 21
e 2 23
e 2 24
e 2 27
e 2 33
e 2 37
e 2 40
e 2 46
e 2 47
e 2 48
e 2 52
e 2 58
e 3 22
e 3 23
e 3 24
e 3 25
e 3 33
e 3 35
e 3 36
e 3 40
e 3 43
e 3 50
e 3 51
e 3 53
e 3 60
e 4 26
e 4 28
e 4 29
e 4 49
e 4 54
e 5 22
e 5 28
e 5 29
e 5 32
e 5 33
e 5 44
e 5 46
e 5 47
e 5 52
e 6 23
e 6 26
e 6 27
e 6 29
e 6 31
e 6 32
e 6 37
e 6 39
e 6 41
e 6 46
e 6 58
e 6 60
e 7 22
e 7 25
e 7 29
e 7 34
e 7 35
e 7 38
e 7 39
e 7 40
e 7 49
e 7 51
e 7 53
e 7 59
e 8 27
e 8 29
e 8 30
e 8 31
e 8 32
e 8 36
e 8 44
e 8 48
e 8 53
e 8 56
e 9 21
e 9 28
e 9 31
e 9 38
e 9 54
e 9 55
e 10 21
e 10 22
e 10 31
e 10 32
e 10 34
e 10 44
e 10 46
e 10 48
e 10 49
e 10 52
e 10 54
e 11 28
e 11 31
e 11 35
e 11 37
e 11 44
e 11 47
e 11 51
e 11 56
e 11 58
e 11 59
e 11 60
e 12 27
e 12 34
e 12 37
e 12 41
e 12 46
e 12 51
e 12 52
e 12 57
e 12 60
e 13 24
e 13 26
e 13 27
e 13 40
e 13 43
e 13 46
e 13 47
e 13 54
e 14 26
e 14 29
e 14 32
e 14 40
e 14 47
e 14 53
e 14 57
e 15 24
e 15 26
e 15 27
e 15 28
e 15 30
e 15 39
e 15 47
e 15 50
e 15 51
e 16 26
e 16 27
e 16 29
e 16 39
e 16 42
e 16 47
e 16 55
e 16 58
e 17 33
e 17 37
e 17 38
e 17 40
e 17 42
e 17 43
e 17 44
e 17 47
e 17 52
e 17 53
e 17 54
e 18 21
e 18 25
e 18 27
e 18 29
e 18 33
e 18 47
e 18 50
e 18 51
e 18 57
e 19 21
e 19 28
e 19 31
e 19 32
e 19 33
e 19 34
e 19 35
e 19 38
e 19 43
e 19 44
e 19 47
e 19 48
e 19 50
e 19 52
e 19 54
e 19 55
e 19 57
e 19 60
e 20 21
e 20 22
e 20 24
e 20 28
e 20 30
e 20 31
e 20 35
e 20 47
e 20 53
e 20 59
e 21 44
e 22 43
e 22 46
e 22 52
e 22 58
e 22 59
e 23 46
e 23 47
e 23 51
e 23 55
e 24 45
e 24 49
e 24 51
e 24 52
e 24 56
e 24 58
e 25 41
e 25 43
e 25 53
e 25 54
e 25 56
e 25 59
e 26 41
e 26 60
e 27 42
e 27 43
e 27 49
e 27 50
e 27 55
e 27 56
e 27 58
e 28 44
e 28 50
e 28 54
e 28 59
e 28 60
e 29 45
e 29 47
e 29 50
e 29 52
e 29 56
e 30 45
e 30 49
e 30 53
e 30 57
e 30 60
e 31 46
e 31 48
e 31 50
e 31 53
e 31 56
e 31 59
e 31 60
e 32 43
e 32 49
e 32 53
e 32 55
e 32 56
e 32 57
e 32 58
e 33 42
e 33 44
e 33 45
e 33 56
e 34 44
e 34 47
e 34 51
e 34 52
e 34 55
e 34 60
e 35 47
e 35 52
e 35 53
e 35 58
e 36 46
e 36 48
e 36 49
e 36 52
e 36 58
e 37 45
e 37 46
e 37 47
e 37 48
e 37 49
e 37 55
e 37 58
e 38 41
e 38 44
e 38 47
e 38 50
e 38 52
e 38 54
e 38 56
e 38 59
e 39 41
e 39 47
e 39 52
e 39 53
e 39 54
e 39 55
e 39 57
e 39 59
e 40 42
e 40 44
e 40 46
e 40 47
e 40 50
e 40 57
