c FILE: balanced_graphs/balanced_140_7_75_2.col
c
c DESCRIPTION: Random balanced graph, 140 nodes,
c              partitions 7
c              edge probability 0.75
c
c G(140,7,0.75) graph
c number of vertices : 140
c max number of edges: 9730
c edge probability   : 0.75
c
c           Graph Stats
c number of vertices  : 140
c nonisolated vertices: 140
c number of edges     : 6193
c edge density        : 0.6365
c max degree          : 102
c avg degree          : 88.47
c min degree          : 75
c
p col 140 6193
e 1 21
e 1 22
e 1 23
e 1 24
e 1 25
e 1 26
e 1 28
e 1 29
e 1 30
e 1 32
e 1 34
e 1 35
e 1 36
e 1 37
e 1 38
e 1 40
e 1 41
e 1 42
e 1 45
e 1 46
e 1 47
e 1 48
e 1 49
e 1 50
e 1 52
e 1 53
e 1 54
e 1 56
e 1 57
e 1 58
e 1 60
e 1 61
e 1 62
e 1 63
e 1 64
e 1 66
e 1 67
e 1 68
e 1 71
e 1 72
e 1 73
e 1 74
e 1 75
e 1 76
e 1 79
e 1 80
e 1 84
e 1 87
e 1 88
e 1 89
e 1 90
e 1 91
e 1 92
e 1 93
e 1 94
e 1 95
e 1 96
e 1 98
e 1 101
e 1 102
e 1 103
e 1 104
e 1 105
e 1 106
e 1 107
e 1 108
e 1 109
e 1 111
e 1 112
e 1 113
e 1 114
e 1 116
e 1 117
e 1 118
e 1 119
e 1 120
e 1 121
e 1 122
e 1 123
e 1 124
e 1 125
e 1 126
e 1 127
e 1 129
e 1 130
e 1 133
e 1 134
e 1 135
e 1 136
e 1 137
e 1 138
e 1 139
e 1 140
e 2 21
e 2 25
e 2 26
e 2 27
e 2 29
e 2 30
e 2 31
e 2 32
e 2 33
e 2 34
e 2 36
e 2 38
e 2 39
e 2 40
e 2 44
e 2 45
e 2 47
e 2 48
e 2 49
e 2 50
e 2 52
e 2 53
e 2 54
e 2 55
e 2 56
e 2 57
e 2 58
e 2 59
e 2 60
e 2 62
e 2 63
e 2 64
e 2 65
e 2 66
e 2 68
e 2 69
e 2 70
e 2 71
e 2 73
e 2 74
e 2 75
e 2 76
e 2 77
e 2 78
e 2 79
e 2 81
e 2 82
e 2 83
e 2 85
e 2 86
e 2 87
e 2 89
e 2 90
e 2 91
e 2 92
e 2 93
e 2 95
e 2 96
e 2 97
e 2 98
e 2 99
e 2 100
e 2 101
e 2 103
e 2 104
e 2 105
e 2 106
e 2 108
e 2 109
e 2 110
e 2 111
e 2 112
e 2 113
e 2 115
e 2 116
e 2 117
e 2 119
e 2 120
e 2 121
e 2 122
e 2 123
e 2 124
e 2 125
e 2 126
e 2 127
e 2 128
e 2 130
e 2 131
e 2 132
e 2 134
e 2 135
e 2 136
e 2 137
e 2 138
e 2 140
e 3 22
e 3 23
e 3 24
e 3 25
e 3 26
e 3 28
e 3 29
e 3 30
e 3 31
e 3 32
e 3 33
e 3 36
e 3 38
e 3 39
e 3 40
e 3 42
e 3 43
e 3 46
e 3 47
e 3 48
e 3 49
e 3 50
e 3 52
e 3 53
e 3 54
e 3 55
e 3 56
e 3 57
e 3 58
e 3 59
e 3 61
e 3 62
e 3 64
e 3 66
e 3 67
e 3 68
e 3 69
e 3 70
e 3 71
e 3 73
e 3 75
e 3 76
e 3 78
e 3 79
e 3 80
e 3 81
e 3 85
e 3 86
e 3 88
e 3 89
e 3 90
e 3 91
e 3 93
e 3 94
e 3 96
e 3 97
e 3 98
e 3 99
e 3 100
e 3 101
e 3 102
e 3 103
e 3 104
e 3 105
e 3 107
e 3 108
e 3 109
e 3 110
e 3 112
e 3 113
e 3 114
e 3 116
e 3 117
e 3 118
e 3 120
e 3 122
e 3 124
e 3 125
e 3 126
e 3 128
e 3 129
e 3 130
e 3 132
e 3 134
e 3 135
e 3 136
e 3 138
e 3 139
e 3 140
e 4 21
e 4 23
e 4 24
e 4 25
e 4 27
e 4 28
e 4 30
e 4 31
e 4 38
e 4 39
e 4 40
e 4 42
e 4 43
e 4 44
e 4 45
e 4 46
e 4 47
e 4 48
e 4 49
e 4 50
e 4 51
e 4 52
e 4 53
e 4 56
e 4 57
e 4 60
e 4 61
e 4 62
e 4 64
e 4 65
e 4 68
e 4 69
e 4 70
e 4 71
e 4 73
e 4 74
e 4 75
e 4 76
e 4 78
e 4 79
e 4 81
e 4 82
e 4 83
e 4 85
e 4 86
e 4 87
e 4 89
e 4 90
e 4 93
e 4 94
e 4 95
e 4 97
e 4 98
e 4 99
e 4 100
e 4 101
e 4 102
e 4 103
e 4 104
e 4 105
e 4 106
e 4 107
e 4 108
e 4 109
e 4 111
e 4 112
e 4 114
e 4 115
e 4 116
e 4 117
e 4 118
e 4 120
e 4 121
e 4 122
e 4 123
e 4 125
e 4 128
e 4 129
e 4 130
e 4 131
e 4 132
e 4 133
e 4 134
e 4 135
e 4 136
e 4 138
e 4 139
e 4 140
e 5 21
e 5 23
e 5 25
e 5 26
e 5 27
e 5 29
e 5 30
e 5 31
e 5 35
e 5 36
e 5 38
e 5 39
e 5 40
e 5 41
e 5 42
e 5 44
e 5 46
e 5 48
e 5 49
e 5 50
e 5 51
e 5 53
e 5 54
e 5 57
e 5 58
e 5 59
e 5 60
e 5 61
e 5 62
e 5 63
e 5 65
e 5 66
e 5 67
e 5 70
e 5 71
e 5 72
e 5 73
e 5 74
e 5 75
e 5 76
e 5 78
e 5 79
e 5 81
e 5 82
e 5 83
e 5 84
e 5 86
e 5 87
e 5 88
e 5 90
e 5 91
e 5 92
e 5 94
e 5 95
e 5 96
e 5 97
e 5 98
e 5 99
e 5 100
e 5 101
e 5 102
e 5 103
e 5 104
e 5 105
e 5 106
e 5 107
e 5 110
e 5 111
e 5 113
e 5 114
e 5 115
e 5 117
e 5 118
e 5 120
e 5 121
e 5 122
e 5 123
e 5 124
e 5 125
e 5 128
e 5 129
e 5 130
e 5 133
e 5 134
e 5 136
e 5 137
e 5 138
e 5 139
e 6 21
e 6 23
e 6 24
e 6 26
e 6 27
e 6 28
e 6 30
e 6 31
e 6 33
e 6 34
e 6 35
e 6 36
e 6 37
e 6 40
e 6 43
e 6 44
e 6 46
e 6 47
e 6 48
e 6 49
e 6 50
e 6 51
e 6 52
e 6 53
e 6 54
e 6 55
e 6 56
e 6 57
e 6 59
e 6 60
e 6 61
e 6 62
e 6 64
e 6 66
e 6 67
e 6 68
e 6 69
e 6 71
e 6 73
e 6 75
e 6 76
e 6 78
e 6 79
e 6 80
e 6 81
e 6 82
e 6 83
e 6 84
e 6 85
e 6 87
e 6 89
e 6 90
e 6 91
e 6 92
e 6 93
e 6 94
e 6 95
e 6 96
e 6 97
e 6 99
e 6 101
e 6 102
e 6 103
e 6 104
e 6 105
e 6 106
e 6 107
e 6 108
e 6 109
e 6 110
e 6 111
e 6 112
e 6 114
e 6 115
e 6 116
e 6 119
e 6 120
e 6 121
e 6 122
e 6 123
e 6 124
e 6 126
e 6 127
e 6 128
e 6 131
e 6 132
e 6 134
e 6 135
e 6 137
e 6 139
e 6 140
e 7 21
e 7 22
e 7 23
e 7 24
e 7 25
e 7 28
e 7 30
e 7 33
e 7 34
e 7 36
e 7 37
e 7 38
e 7 39
e 7 40
e 7 41
e 7 43
e 7 44
e 7 45
e 7 47
e 7 49
e 7 51
e 7 53
e 7 54
e 7 56
e 7 57
e 7 58
e 7 59
e 7 61
e 7 64
e 7 65
e 7 66
e 7 67
e 7 68
e 7 69
e 7 70
e 7 71
e 7 72
e 7 74
e 7 76
e 7 77
e 7 78
e 7 79
e 7 80
e 7 81
e 7 83
e 7 84
e 7 86
e 7 87
e 7 88
e 7 89
e 7 90
e 7 91
e 7 93
e 7 95
e 7 96
e 7 97
e 7 99
e 7 100
e 7 101
e 7 102
e 7 104
e 7 107
e 7 108
e 7 110
e 7 111
e 7 112
e 7 113
e 7 114
e 7 115
e 7 116
e 7 118
e 7 119
e 7 121
e 7 122
e 7 123
e 7 124
e 7 126
e 7 127
e 7 128
e 7 129
e 7 133
e 7 134
e 7 135
e 7 136
e 7 137
e 7 140
e 8 22
e 8 25
e 8 26
e 8 27
e 8 28
e 8 29
e 8 32
e 8 33
e 8 34
e 8 35
e 8 36
e 8 37
e 8 38
e 8 39
e 8 40
e 8 41
e 8 42
e 8 43
e 8 45
e 8 46
e 8 48
e 8 50
e 8 51
e 8 52
e 8 53
e 8 54
e 8 55
e 8 56
e 8 57
e 8 59
e 8 60
e 8 62
e 8 63
e 8 64
e 8 66
e 8 68
e 8 69
e 8 70
e 8 71
e 8 72
e 8 73
e 8 74
e 8 76
e 8 77
e 8 78
e 8 79
e 8 80
e 8 81
e 8 83
e 8 84
e 8 85
e 8 86
e 8 87
e 8 88
e 8 89
e 8 90
e 8 91
e 8 92
e 8 95
e 8 96
e 8 97
e 8 98
e 8 99
e 8 100
e 8 101
e 8 103
e 8 104
e 8 108
e 8 110
e 8 112
e 8 113
e 8 114
e 8 117
e 8 120
e 8 123
e 8 124
e 8 125
e 8 126
e 8 127
e 8 128
e 8 129
e 8 130
e 8 131
e 8 132
e 8 133
e 8 134
e 8 135
e 8 137
e 8 138
e 8 140
e 9 23
e 9 24
e 9 25
e 9 26
e 9 27
e 9 31
e 9 32
e 9 33
e 9 34
e 9 35
e 9 36
e 9 37
e 9 38
e 9 40
e 9 43
e 9 44
e 9 45
e 9 46
e 9 49
e 9 53
e 9 55
e 9 57
e 9 59
e 9 60
e 9 61
e 9 62
e 9 64
e 9 67
e 9 68
e 9 69
e 9 70
e 9 71
e 9 72
e 9 75
e 9 76
e 9 77
e 9 79
e 9 81
e 9 83
e 9 84
e 9 86
e 9 87
e 9 89
e 9 90
e 9 91
e 9 92
e 9 93
e 9 94
e 9 95
e 9 96
e 9 97
e 9 98
e 9 100
e 9 101
e 9 102
e 9 104
e 9 106
e 9 108
e 9 109
e 9 111
e 9 113
e 9 115
e 9 116
e 9 117
e 9 118
e 9 119
e 9 120
e 9 121
e 9 122
e 9 123
e 9 124
e 9 125
e 9 129
e 9 130
e 9 131
e 9 132
e 9 133
e 9 134
e 9 135
e 9 136
e 9 137
e 9 138
e 9 139
e 9 140
e 10 21
e 10 23
e 10 24
e 10 25
e 10 27
e 10 30
e 10 31
e 10 32
e 10 33
e 10 35
e 10 37
e 10 38
e 10 39
e 10 40
e 10 41
e 10 43
e 10 44
e 10 45
e 10 46
e 10 47
e 10 48
e 10 49
e 10 50
e 10 51
e 10 53
e 10 54
e 10 56
e 10 57
e 10 58
e 10 59
e 10 62
e 10 64
e 10 65
e 10 66
e 10 67
e 10 68
e 10 69
e 10 70
e 10 73
e 10 75
e 10 76
e 10 77
e 10 78
e 10 79
e 10 80
e 10 82
e 10 84
e 10 85
e 10 87
e 10 88
e 10 89
e 10 90
e 10 91
e 10 92
e 10 95
e 10 97
e 10 98
e 10 99
e 10 101
e 10 102
e 10 104
e 10 105
e 10 106
e 10 107
e 10 109
e 10 110
e 10 111
e 10 114
e 10 117
e 10 118
e 10 119
e 10 121
e 10 122
e 10 124
e 10 126
e 10 127
e 10 129
e 10 130
e 10 132
e 10 133
e 10 134
e 10 135
e 10 137
e 10 138
e 10 139
e 11 21
e 11 22
e 11 23
e 11 24
e 11 28
e 11 29
e 11 30
e 11 32
e 11 34
e 11 35
e 11 36
e 11 37
e 11 38
e 11 42
e 11 43
e 11 44
e 11 46
e 11 48
e 11 49
e 11 51
e 11 52
e 11 54
e 11 55
e 11 56
e 11 57
e 11 59
e 11 60
e 11 61
e 11 62
e 11 63
e 11 65
e 11 66
e 11 67
e 11 72
e 11 73
e 11 74
e 11 75
e 11 77
e 11 78
e 11 83
e 11 84
e 11 85
e 11 86
e 11 89
e 11 91
e 11 93
e 11 95
e 11 96
e 11 97
e 11 98
e 11 99
e 11 101
e 11 104
e 11 105
e 11 107
e 11 108
e 11 109
e 11 110
e 11 111
e 11 113
e 11 114
e 11 115
e 11 117
e 11 118
e 11 120
e 11 121
e 11 122
e 11 123
e 11 124
e 11 125
e 11 126
e 11 127
e 11 128
e 11 129
e 11 130
e 11 131
e 11 133
e 11 135
e 11 137
e 11 139
e 11 140
e 12 21
e 12 23
e 12 24
e 12 25
e 12 26
e 12 28
e 12 30
e 12 31
e 12 32
e 12 33
e 12 34
e 12 36
e 12 37
e 12 39
e 12 40
e 12 42
e 12 43
e 12 44
e 12 45
e 12 46
e 12 47
e 12 48
e 12 49
e 12 50
e 12 51
e 12 52
e 12 53
e 12 55
e 12 56
e 12 57
e 12 58
e 12 59
e 12 60
e 12 61
e 12 62
e 12 64
e 12 65
e 12 66
e 12 68
e 12 69
e 12 70
e 12 73
e 12 74
e 12 75
e 12 76
e 12 77
e 12 80
e 12 81
e 12 82
e 12 83
e 12 84
e 12 85
e 12 86
e 12 88
e 12 91
e 12 94
e 12 95
e 12 96
e 12 97
e 12 99
e 12 100
e 12 101
e 12 103
e 12 104
e 12 106
e 12 108
e 12 109
e 12 112
e 12 113
e 12 114
e 12 116
e 12 118
e 12 119
e 12 120
e 12 121
e 12 122
e 12 123
e 12 126
e 12 127
e 12 128
e 12 129
e 12 132
e 12 133
e 12 134
e 12 136
e 12 137
e 12 138
e 12 139
e 13 22
e 13 23
e 13 25
e 13 29
e 13 30
e 13 31
e 13 32
e 13 33
e 13 34
e 13 36
e 13 37
e 13 38
e 13 39
e 13 40
e 13 41
e 13 42
e 13 43
e 13 45
e 13 46
e 13 47
e 13 49
e 13 50
e 13 52
e 13 53
e 13 54
e 13 55
e 13 56
e 13 58
e 13 60
e 13 61
e 13 63
e 13 64
e 13 65
e 13 66
e 13 68
e 13 69
e 13 70
e 13 71
e 13 72
e 13 73
e 13 74
e 13 75
e 13 76
e 13 77
e 13 78
e 13 79
e 13 80
e 13 82
e 13 84
e 13 85
e 13 87
e 13 89
e 13 90
e 13 93
e 13 94
e 13 95
e 13 96
e 13 97
e 13 98
e 13 99
e 13 100
e 13 102
e 13 103
e 13 106
e 13 107
e 13 108
e 13 109
e 13 110
e 13 111
e 13 114
e 13 115
e 13 116
e 13 117
e 13 121
e 13 122
e 13 123
e 13 124
e 13 125
e 13 127
e 13 128
e 13 129
e 13 133
e 13 134
e 13 135
e 13 136
e 13 137
e 13 139
e 13 140
e 14 22
e 14 23
e 14 24
e 14 25
e 14 26
e 14 27
e 14 28
e 14 29
e 14 30
e 14 31
e 14 32
e 14 33
e 14 35
e 14 36
e 14 37
e 14 38
e 14 39
e 14 40
e 14 41
e 14 42
e 14 44
e 14 45
e 14 46
e 14 49
e 14 51
e 14 53
e 14 54
e 14 55
e 14 56
e 14 57
e 14 58
e 14 59
e 14 61
e 14 63
e 14 64
e 14 65
e 14 66
e 14 68
e 14 69
e 14 70
e 14 71
e 14 73
e 14 76
e 14 77
e 14 79
e 14 81
e 14 83
e 14 84
e 14 85
e 14 86
e 14 89
e 14 90
e 14 91
e 14 92
e 14 93
e 14 94
e 14 96
e 14 97
e 14 98
e 14 99
e 14 102
e 14 103
e 14 104
e 14 105
e 14 108
e 14 109
e 14 110
e 14 111
e 14 112
e 14 113
e 14 114
e 14 116
e 14 117
e 14 118
e 14 119
e 14 121
e 14 122
e 14 123
e 14 124
e 14 125
e 14 127
e 14 129
e 14 134
e 14 135
e 14 136
e 14 137
e 14 138
e 14 139
e 14 140
e 15 21
e 15 23
e 15 26
e 15 27
e 15 28
e 15 29
e 15 30
e 15 31
e 15 32
e 15 33
e 15 34
e 15 35
e 15 36
e 15 37
e 15 38
e 15 39
e 15 40
e 15 41
e 15 43
e 15 44
e 15 45
e 15 46
e 15 47
e 15 50
e 15 52
e 15 54
e 15 55
e 15 56
e 15 57
e 15 58
e 15 59
e 15 60
e 15 61
e 15 63
e 15 65
e 15 69
e 15 70
e 15 71
e 15 74
e 15 76
e 15 77
e 15 78
e 15 79
e 15 80
e 15 81
e 15 82
e 15 83
e 15 85
e 15 86
e 15 88
e 15 89
e 15 90
e 15 91
e 15 92
e 15 93
e 15 94
e 15 95
e 15 99
e 15 100
e 15 101
e 15 102
e 15 103
e 15 104
e 15 105
e 15 107
e 15 108
e 15 109
e 15 111
e 15 112
e 15 117
e 15 118
e 15 121
e 15 122
e 15 123
e 15 124
e 15 125
e 15 126
e 15 128
e 15 129
e 15 130
e 15 131
e 15 132
e 15 133
e 15 135
e 15 136
e 15 138
e 15 139
e 15 140
e 16 23
e 16 25
e 16 26
e 16 29
e 16 31
e 16 33
e 16 35
e 16 36
e 16 37
e 16 38
e 16 39
e 16 40
e 16 41
e 16 42
e 16 43
e 16 45
e 16 46
e 16 47
e 16 48
e 16 49
e 16 50
e 16 51
e 16 52
e 16 53
e 16 56
e 16 57
e 16 58
e 16 59
e 16 60
e 16 62
e 16 63
e 16 64
e 16 65
e 16 66
e 16 67
e 16 69
e 16 70
e 16 71
e 16 74
e 16 76
e 16 78
e 16 79
e 16 80
e 16 81
e 16 82
e 16 83
e 16 84
e 16 85
e 16 86
e 16 87
e 16 88
e 16 91
e 16 92
e 16 95
e 16 97
e 16 98
e 16 99
e 16 100
e 16 101
e 16 102
e 16 103
e 16 105
e 16 106
e 16 107
e 16 108
e 16 110
e 16 112
e 16 113
e 16 114
e 16 116
e 16 119
e 16 120
e 16 121
e 16 122
e 16 123
e 16 124
e 16 125
e 16 126
e 16 127
e 16 128
e 16 130
e 16 132
e 16 134
e 16 136
e 16 137
e 16 138
e 16 140
e 17 21
e 17 22
e 17 23
e 17 24
e 17 26
e 17 27
e 17 28
e 17 29
e 17 31
e 17 32
e 17 34
e 17 35
e 17 36
e 17 38
e 17 39
e 17 40
e 17 41
e 17 42
e 17 43
e 17 44
e 17 46
e 17 47
e 17 48
e 17 49
e 17 50
e 17 52
e 17 54
e 17 55
e 17 56
e 17 58
e 17 59
e 17 60
e 17 61
e 17 62
e 17 64
e 17 66
e 17 68
e 17 69
e 17 70
e 17 71
e 17 72
e 17 73
e 17 74
e 17 75
e 17 76
e 17 77
e 17 78
e 17 80
e 17 81
e 17 83
e 17 84
e 17 85
e 17 86
e 17 88
e 17 90
e 17 91
e 17 92
e 17 93
e 17 95
e 17 96
e 17 97
e 17 98
e 17 99
e 17 101
e 17 102
e 17 104
e 17 107
e 17 108
e 17 109
e 17 110
e 17 111
e 17 112
e 17 113
e 17 114
e 17 115
e 17 117
e 17 118
e 17 121
e 17 122
e 17 123
e 17 124
e 17 125
e 17 126
e 17 127
e 17 128
e 17 129
e 17 130
e 17 131
e 17 132
e 17 133
e 17 134
e 17 135
e 17 136
e 17 137
e 17 138
e 17 139
e 17 140
e 18 22
e 18 23
e 18 24
e 18 25
e 18 26
e 18 27
e 18 28
e 18 29
e 18 30
e 18 31
e 18 32
e 18 33
e 18 34
e 18 35
e 18 36
e 18 38
e 18 39
e 18 40
e 18 42
e 18 45
e 18 46
e 18 48
e 18 49
e 18 50
e 18 51
e 18 52
e 18 54
e 18 55
e 18 56
e 18 58
e 18 59
e 18 62
e 18 63
e 18 64
e 18 65
e 18 66
e 18 67
e 18 68
e 18 69
e 18 70
e 18 71
e 18 72
e 18 73
e 18 74
e 18 75
e 18 76
e 18 77
e 18 78
e 18 79
e 18 81
e 18 83
e 18 84
e 18 85
e 18 86
e 18 87
e 18 88
e 18 89
e 18 91
e 18 92
e 18 93
e 18 94
e 18 95
e 18 96
e 18 97
e 18 98
e 18 99
e 18 101
e 18 102
e 18 104
e 18 105
e 18 106
e 18 107
e 18 109
e 18 110
e 18 111
e 18 114
e 18 115
e 18 116
e 18 117
e 18 118
e 18 119
e 18 121
e 18 122
e 18 123
e 18 125
e 18 126
e 18 127
e 18 128
e 18 129
e 18 131
e 18 132
e 18 133
e 18 134
e 18 135
e 18 136
e 18 137
e 18 138
e 18 139
e 19 22
e 19 24
e 19 25
e 19 26
e 19 27
e 19 28
e 19 29
e 19 30
e 19 33
e 19 34
e 19 36
e 19 38
e 19 39
e 19 40
e 19 41
e 19 42
e 19 43
e 19 45
e 19 46
e 19 47
e 19 48
e 19 50
e 19 51
e 19 52
e 19 53
e 19 56
e 19 57
e 19 58
e 19 59
e 19 60
e 19 63
e 19 64
e 19 65
e 19 67
e 19 68
e 19 70
e 19 71
e 19 72
e 19 73
e 19 74
e 19 75
e 19 76
e 19 77
e 19 79
e 19 80
e 19 81
e 19 83
e 19 87
e 19 88
e 19 90
e 19 94
e 19 95
e 19 96
e 19 97
e 19 98
e 19 100
e 19 101
e 19 102
e 19 103
e 19 104
e 19 105
e 19 106
e 19 108
e 19 109
e 19 111
e 19 112
e 19 113
e 19 115
e 19 116
e 19 117
e 19 118
e 19 122
e 19 125
e 19 126
e 19 127
e 19 128
e 19 130
e 19 131
e 19 132
e 19 133
e 19 135
e 19 136
e 19 139
e 19 140
e 20 21
e 20 22
e 20 23
e 20 24
e 20 26
e 20 27
e 20 28
e 20 29
e 20 31
e 20 32
e 20 34
e 20 36
e 20 37
e 20 38
e 20 39
e 20 40
e 20 42
e 20 43
e 20 44
e 20 46
e 20 47
e 20 49
e 20 50
e 20 51
e 20 52
e 20 54
e 20 57
e 20 58
e 20 59
e 20 61
e 20 64
e 20 66
e 20 67
e 20 68
e 20 69
e 20 71
e 20 72
e 20 73
e 20 74
e 20 75
e 20 76
e 20 77
e 20 79
e 20 80
e 20 81
e 20 82
e 20 83
e 20 84
e 20 85
e 20 86
e 20 87
e 20 88
e 20 89
e 20 90
e 20 91
e 20 92
e 20 95
e 20 96
e 20 97
e 20 99
e 20 100
e 20 101
e 20 102
e 20 103
e 20 104
e 20 105
e 20 107
e 20 108
e 20 109
e 20 110
e 20 111
e 20 112
e 20 113
e 20 115
e 20 119
e 20 120
e 20 121
e 20 122
e 20 123
e 20 126
e 20 128
e 20 130
e 20 131
e 20 133
e 20 134
e 20 135
e 20 138
e 20 139
e 20 140
e 21 42
e 21 43
e 21 45
e 21 46
e 21 48
e 21 49
e 21 50
e 21 52
e 21 54
e 21 55
e 21 56
e 21 57
e 21 58
e 21 59
e 21 60
e 21 61
e 21 62
e 21 63
e 21 64
e 21 68
e 21 69
e 21 70
e 21 73
e 21 74
e 21 75
e 21 76
e 21 78
e 21 79
e 21 81
e 21 83
e 21 84
e 21 87
e 21 88
e 21 90
e 21 92
e 21 93
e 21 94
e 21 95
e 21 96
e 21 97
e 21 98
e 21 100
e 21 101
e 21 103
e 21 104
e 21 105
e 21 106
e 21 107
e 21 108
e 21 109
e 21 110
e 21 111
e 21 112
e 21 113
e 21 114
e 21 115
e 21 116
e 21 118
e 21 119
e 21 120
e 21 121
e 21 122
e 21 124
e 21 126
e 21 127
e 21 129
e 21 130
e 21 133
e 21 135
e 21 136
e 21 137
e 21 138
e 21 139
e 21 140
e 22 41
e 22 42
e 22 43
e 22 44
e 22 45
e 22 47
e 22 48
e 22 49
e 22 50
e 22 51
e 22 52
e 22 53
e 22 54
e 22 56
e 22 57
e 22 60
e 22 61
e 22 62
e 22 65
e 22 66
e 22 67
e 22 68
e 22 70
e 22 71
e 22 72
e 22 73
e 22 74
e 22 75
e 22 77
e 22 78
e 22 80
e 22 81
e 22 82
e 22 83
e 22 84
e 22 85
e 22 87
e 22 89
e 22 90
e 22 92
e 22 93
e 22 94
e 22 95
e 22 97
e 22 98
e 22 99
e 22 100
e 22 101
e 22 102
e 22 103
e 22 105
e 22 106
e 22 107
e 22 108
e 22 109
e 22 110
e 22 111
e 22 112
e 22 113
e 22 115
e 22 119
e 22 120
e 22 121
e 22 122
e 22 123
e 22 126
e 22 127
e 22 128
e 22 129
e 22 130
e 22 131
e 22 132
e 22 133
e 22 134
e 22 136
e 22 137
e 22 138
e 22 139
e 22 140
e 23 41
e 23 43
e 23 44
e 23 45
e 23 46
e 23 47
e 23 48
e 23 49
e 23 50
e 23 53
e 23 54
e 23 55
e 23 56
e 23 58
e 23 59
e 23 61
e 23 62
e 23 63
e 23 64
e 23 65
e 23 67
e 23 69
e 23 72
e 23 74
e 23 75
e 23 80
e 23 82
e 23 83
e 23 84
e 23 85
e 23 86
e 23 87
e 23 88
e 23 89
e 23 90
e 23 92
e 23 94
e 23 98
e 23 99
e 23 100
e 23 101
e 23 102
e 23 103
e 23 104
e 23 108
e 23 109
e 23 112
e 23 113
e 23 114
e 23 115
e 23 116
e 23 117
e 23 118
e 23 119
e 23 120
e 23 122
e 23 124
e 23 125
e 23 126
e 23 128
e 23 129
e 23 130
e 23 131
e 23 132
e 23 136
e 23 138
e 23 139
e 23 140
e 24 41
e 24 42
e 24 44
e 24 45
e 24 46
e 24 47
e 24 48
e 24 54
e 24 55
e 24 58
e 24 60
e 24 61
e 24 62
e 24 66
e 24 67
e 24 68
e 24 69
e 24 71
e 24 72
e 24 74
e 24 75
e 24 76
e 24 78
e 24 80
e 24 82
e 24 83
e 24 84
e 24 85
e 24 87
e 24 89
e 24 90
e 24 91
e 24 92
e 24 94
e 24 96
e 24 97
e 24 98
e 24 99
e 24 100
e 24 101
e 24 102
e 24 103
e 24 104
e 24 106
e 24 108
e 24 109
e 24 110
e 24 111
e 24 113
e 24 115
e 24 116
e 24 117
e 24 118
e 24 119
e 24 120
e 24 121
e 24 122
e 24 123
e 24 125
e 24 126
e 24 127
e 24 128
e 24 129
e 24 130
e 24 131
e 24 133
e 24 134
e 24 135
e 24 136
e 24 137
e 24 138
e 24 139
e 24 140
e 25 41
e 25 42
e 25 43
e 25 44
e 25 45
e 25 47
e 25 48
e 25 52
e 25 53
e 25 55
e 25 57
e 25 58
e 25 59
e 25 60
e 25 61
e 25 62
e 25 63
e 25 65
e 25 66
e 25 68
e 25 69
e 25 70
e 25 71
e 25 72
e 25 73
e 25 74
e 25 75
e 25 78
e 25 79
e 25 80
e 25 81
e 25 82
e 25 83
e 25 84
e 25 88
e 25 89
e 25 90
e 25 91
e 25 93
e 25 94
e 25 95
e 25 96
e 25 97
e 25 98
e 25 99
e 25 101
e 25 102
e 25 103
e 25 105
e 25 106
e 25 108
e 25 109
e 25 110
e 25 111
e 25 112
e 25 114
e 25 116
e 25 117
e 25 119
e 25 120
e 25 121
e 25 123
e 25 125
e 25 127
e 25 128
e 25 129
e 25 130
e 25 131
e 25 132
e 25 133
e 25 134
e 25 135
e 25 138
e 25 139
e 25 140
e 26 41
e 26 43
e 26 44
e 26 45
e 26 46
e 26 47
e 26 48
e 26 49
e 26 50
e 26 51
e 26 52
e 26 53
e 26 54
e 26 55
e 26 56
e 26 58
e 26 59
e 26 60
e 26 61
e 26 63
e 26 65
e 26 66
e 26 69
e 26 71
e 26 74
e 26 75
e 26 76
e 26 78
e 26 80
e 26 81
e 26 82
e 26 83
e 26 84
e 26 85
e 26 86
e 26 89
e 26 90
e 26 91
e 26 92
e 26 93
e 26 95
e 26 97
e 26 101
e 26 103
e 26 105
e 26 106
e 26 107
e 26 108
e 26 109
e 26 110
e 26 111
e 26 112
e 26 113
e 26 115
e 26 116
e 26 118
e 26 121
e 26 124
e 26 125
e 26 126
e 26 127
e 26 128
e 26 130
e 26 131
e 26 133
e 26 134
e 26 136
e 26 137
e 26 139
e 26 140
e 27 42
e 27 43
e 27 44
e 27 45
e 27 46
e 27 47
e 27 48
e 27 50
e 27 52
e 27 55
e 27 57
e 27 60
e 27 61
e 27 63
e 27 64
e 27 65
e 27 66
e 27 67
e 27 68
e 27 70
e 27 71
e 27 72
e 27 73
e 27 75
e 27 76
e 27 77
e 27 78
e 27 80
e 27 81
e 27 84
e 27 87
e 27 88
e 27 89
e 27 91
e 27 92
e 27 93
e 27 95
e 27 96
e 27 98
e 27 99
e 27 100
e 27 101
e 27 102
e 27 103
e 27 104
e 27 105
e 27 106
e 27 107
e 27 109
e 27 111
e 27 112
e 27 113
e 27 114
e 27 115
e 27 116
e 27 119
e 27 120
e 27 123
e 27 126
e 27 127
e 27 128
e 27 129
e 27 130
e 27 131
e 27 132
e 27 133
e 27 134
e 27 136
e 27 137
e 27 138
e 27 139
e 27 140
e 28 42
e 28 43
e 28 45
e 28 46
e 28 47
e 28 48
e 28 52
e 28 53
e 28 54
e 28 55
e 28 56
e 28 57
e 28 60
e 28 61
e 28 62
e 28 64
e 28 65
e 28 66
e 28 68
e 28 69
e 28 70
e 28 71
e 28 72
e 28 73
e 28 77
e 28 78
e 28 79
e 28 81
e 28 83
e 28 84
e 28 85
e 28 87
e 28 88
e 28 89
e 28 94
e 28 99
e 28 100
e 28 101
e 28 102
e 28 103
e 28 104
e 28 105
e 28 106
e 28 107
e 28 110
e 28 111
e 28 112
e 28 113
e 28 114
e 28 115
e 28 116
e 28 117
e 28 118
e 28 119
e 28 120
e 28 122
e 28 123
e 28 124
e 28 125
e 28 129
e 28 130
e 28 131
e 28 132
e 28 133
e 28 134
e 28 135
e 28 137
e 28 138
e 28 140
e 29 41
e 29 44
e 29 47
e 29 48
e 29 49
e 29 50
e 29 51
e 29 52
e 29 54
e 29 55
e 29 56
e 29 58
e 29 59
e 29 60
e 29 61
e 29 62
e 29 65
e 29 67
e 29 72
e 29 73
e 29 74
e 29 75
e 29 76
e 29 77
e 29 78
e 29 80
e 29 81
e 29 82
e 29 83
e 29 84
e 29 85
e 29 86
e 29 87
e 29 88
e 29 89
e 29 90
e 29 91
e 29 93
e 29 94
e 29 96
e 29 97
e 29 98
e 29 100
e 29 101
e 29 102
e 29 103
e 29 104
e 29 105
e 29 106
e 29 107
e 29 108
e 29 109
e 29 110
e 29 111
e 29 112
e 29 113
e 29 114
e 29 115
e 29 116
e 29 117
e 29 118
e 29 119
e 29 120
e 29 121
e 29 122
e 29 123
e 29 125
e 29 126
e 29 127
e 29 129
e 29 130
e 29 133
e 29 134
e 29 135
e 29 136
e 29 137
e 29 138
e 29 140
e 30 44
e 30 45
e 30 47
e 30 48
e 30 49
e 30 50
e 30 51
e 30 53
e 30 55
e 30 57
e 30 59
e 30 60
e 30 61
e 30 62
e 30 65
e 30 67
e 30 69
e 30 74
e 30 75
e 30 76
e 30 77
e 30 79
e 30 80
e 30 81
e 30 82
e 30 83
e 30 84
e 30 86
e 30 87
e 30 89
e 30 90
e 30 92
e 30 93
e 30 94
e 30 95
e 30 97
e 30 98
e 30 99
e 30 101
e 30 103
e 30 104
e 30 105
e 30 106
e 30 107
e 30 108
e 30 109
e 30 110
e 30 112
e 30 113
e 30 114
e 30 115
e 30 116
e 30 118
e 30 119
e 30 120
e 30 121
e 30 122
e 30 123
e 30 124
e 30 125
e 30 126
e 30 127
e 30 129
e 30 130
e 30 131
e 30 134
e 30 136
e 30 137
e 30 139
e 30 140
e 31 41
e 31 42
e 31 45
e 31 46
e 31 49
e 31 50
e 31 51
e 31 52
e 31 54
e 31 55
e 31 57
e 31 58
e 31 60
e 31 61
e 31 62
e 31 63
e 31 64
e 31 65
e 31 66
e 31 67
e 31 68
e 31 69
e 31 70
e 31 71
e 31 72
e 31 73
e 31 77
e 31 78
e 31 79
e 31 81
e 31 82
e 31 83
e 31 84
e 31 86
e 31 87
e 31 88
e 31 89
e 31 90
e 31 91
e 31 92
e 31 94
e 31 95
e 31 97
e 31 98
e 31 99
e 31 102
e 31 103
e 31 104
e 31 105
e 31 106
e 31 107
e 31 108
e 31 109
e 31 110
e 31 111
e 31 113
e 31 114
e 31 115
e 31 116
e 31 117
e 31 118
e 31 120
e 31 122
e 31 123
e 31 124
e 31 129
e 31 132
e 31 133
e 31 135
e 31 136
e 31 137
e 31 140
e 32 41
e 32 42
e 32 43
e 32 44
e 32 45
e 32 46
e 32 48
e 32 49
e 32 50
e 32 51
e 32 52
e 32 53
e 32 55
e 32 56
e 32 57
e 32 59
e 32 60
e 32 61
e 32 62
e 32 63
e 32 64
e 32 65
e 32 66
e 32 67
e 32 69
e 32 70
e 32 72
e 32 73
e 32 75
e 32 76
e 32 77
e 32 80
e 32 81
e 32 82
e 32 83
e 32 85
e 32 86
e 32 87
e 32 88
e 32 90
e 32 91
e 32 92
e 32 94
e 32 95
e 32 96
e 32 97
e 32 98
e 32 100
e 32 101
e 32 102
e 32 103
e 32 104
e 32 105
e 32 106
e 32 108
e 32 109
e 32 110
e 32 111
e 32 112
e 32 114
e 32 115
e 32 118
e 32 119
e 32 120
e 32 121
e 32 122
e 32 123
e 32 124
e 32 126
e 32 127
e 32 128
e 32 130
e 32 131
e 32 135
e 32 137
e 32 139
e 33 41
e 33 42
e 33 43
e 33 44
e 33 45
e 33 46
e 33 47
e 33 48
e 33 50
e 33 51
e 33 52
e 33 56
e 33 57
e 33 59
e 33 60
e 33 61
e 33 63
e 33 65
e 33 66
e 33 67
e 33 68
e 33 69
e 33 75
e 33 76
e 33 77
e 33 83
e 33 84
e 33 85
e 33 86
e 33 91
e 33 94
e 33 95
e 33 97
e 33 98
e 33 99
e 33 102
e 33 103
e 33 104
e 33 105
e 33 106
e 33 108
e 33 109
e 33 113
e 33 114
e 33 116
e 33 117
e 33 119
e 33 120
e 33 121
e 33 122
e 33 123
e 33 124
e 33 125
e 33 126
e 33 129
e 33 130
e 33 132
e 33 135
e 33 136
e 33 137
e 33 140
e 34 41
e 34 43
e 34 44
e 34 45
e 34 46
e 34 47
e 34 48
e 34 49
e 34 50
e 34 51
e 34 52
e 34 54
e 34 55
e 34 57
e 34 58
e 34 59
e 34 60
e 34 61
e 34 62
e 34 63
e 34 65
e 34 66
e 34 67
e 34 68
e 34 70
e 34 71
e 34 72
e 34 73
e 34 74
e 34 76
e 34 77
e 34 78
e 34 79
e 34 80
e 34 81
e 34 83
e 34 84
e 34 85
e 34 86
e 34 89
e 34 90
e 34 91
e 34 92
e 34 93
e 34 94
e 34 95
e 34 97
e 34 98
e 34 99
e 34 100
e 34 102
e 34 103
e 34 104
e 34 105
e 34 106
e 34 107
e 34 108
e 34 110
e 34 111
e 34 112
e 34 113
e 34 114
e 34 115
e 34 116
e 34 117
e 34 118
e 34 119
e 34 122
e 34 123
e 34 124
e 34 125
e 34 126
e 34 128
e 34 129
e 34 130
e 34 131
e 34 132
e 34 133
e 34 135
e 34 136
e 34 137
e 34 138
e 34 139
e 35 41
e 35 42
e 35 43
e 35 44
e 35 45
e 35 46
e 35 47
e 35 50
e 35 51
e 35 52
e 35 53
e 35 54
e 35 56
e 35 57
e 35 58
e 35 59
e 35 60
e 35 63
e 35 64
e 35 66
e 35 67
e 35 69
e 35 70
e 35 71
e 35 73
e 35 74
e 35 75
e 35 76
e 35 77
e 35 80
e 35 81
e 35 82
e 35 83
e 35 88
e 35 92
e 35 94
e 35 95
e 35 96
e 35 97
e 35 98
e 35 100
e 35 101
e 35 102
e 35 104
e 35 105
e 35 106
e 35 107
e 35 108
e 35 109
e 35 110
e 35 111
e 35 112
e 35 114
e 35 116
e 35 117
e 35 118
e 35 119
e 35 120
e 35 121
e 35 122
e 35 123
e 35 125
e 35 126
e 35 128
e 35 130
e 35 131
e 35 132
e 35 134
e 35 136
e 35 137
e 35 138
e 35 139
e 35 140
e 36 41
e 36 42
e 36 43
e 36 44
e 36 45
e 36 47
e 36 48
e 36 49
e 36 50
e 36 52
e 36 53
e 36 54
e 36 55
e 36 56
e 36 58
e 36 59
e 36 60
e 36 61
e 36 62
e 36 63
e 36 64
e 36 65
e 36 66
e 36 67
e 36 68
e 36 69
e 36 71
e 36 72
e 36 74
e 36 75
e 36 76
e 36 77
e 36 79
e 36 81
e 36 85
e 36 87
e 36 88
e 36 89
e 36 90
e 36 91
e 36 92
e 36 93
e 36 94
e 36 95
e 36 96
e 36 97
e 36 98
e 36 99
e 36 100
e 36 101
e 36 102
e 36 103
e 36 104
e 36 105
e 36 106
e 36 107
e 36 108
e 36 109
e 36 110
e 36 111
e 36 112
e 36 114
e 36 115
e 36 116
e 36 118
e 36 119
e 36 120
e 36 121
e 36 122
e 36 123
e 36 124
e 36 125
e 36 126
e 36 127
e 36 128
e 36 131
e 36 133
e 36 134
e 36 135
e 36 136
e 36 137
e 36 138
e 36 139
e 36 140
e 37 41
e 37 42
e 37 43
e 37 44
e 37 45
e 37 46
e 37 47
e 37 49
e 37 50
e 37 52
e 37 55
e 37 56
e 37 57
e 37 59
e 37 60
e 37 61
e 37 64
e 37 65
e 37 66
e 37 67
e 37 68
e 37 69
e 37 71
e 37 72
e 37 74
e 37 75
e 37 76
e 37 78
e 37 79
e 37 80
e 37 81
e 37 83
e 37 84
e 37 85
e 37 86
e 37 87
e 37 88
e 37 90
e 37 91
e 37 92
e 37 93
e 37 94
e 37 95
e 37 96
e 37 97
e 37 98
e 37 99
e 37 100
e 37 101
e 37 102
e 37 103
e 37 105
e 37 106
e 37 107
e 37 108
e 37 109
e 37 110
e 37 111
e 37 112
e 37 113
e 37 114
e 37 115
e 37 116
e 37 118
e 37 119
e 37 120
e 37 121
e 37 122
e 37 124
e 37 125
e 37 126
e 37 128
e 37 129
e 37 130
e 37 131
e 37 132
e 37 133
e 37 134
e 37 135
e 37 136
e 37 137
e 37 138
e 37 140
e 38 41
e 38 42
e 38 43
e 38 45
e 38 46
e 38 47
e 38 48
e 38 49
e 38 50
e 38 52
e 38 54
e 38 55
e 38 57
e 38 60
e 38 61
e 38 62
e 38 63
e 38 64
e 38 65
e 38 67
e 38 69
e 38 70
e 38 71
e 38 72
e 38 73
e 38 74
e 38 75
e 38 76
e 38 77
e 38 78
e 38 79
e 38 80
e 38 81
e 38 82
e 38 84
e 38 86
e 38 87
e 38 88
e 38 90
e 38 91
e 38 92
e 38 93
e 38 94
e 38 95
e 38 96
e 38 97
e 38 98
e 38 99
e 38 100
e 38 102
e 38 103
e 38 104
e 38 105
e 38 106
e 38 108
e 38 109
e 38 110
e 38 111
e 38 113
e 38 114
e 38 115
e 38 116
e 38 117
e 38 118
e 38 119
e 38 121
e 38 122
e 38 124
e 38 125
e 38 126
e 38 127
e 38 128
e 38 129
e 38 130
e 38 131
e 38 133
e 38 134
e 38 135
e 38 136
e 38 139
e 38 140
e 39 43
e 39 45
e 39 46
e 39 47
e 39 49
e 39 50
e 39 52
e 39 54
e 39 56
e 39 57
e 39 58
e 39 61
e 39 62
e 39 64
e 39 65
e 39 67
e 39 69
e 39 71
e 39 73
e 39 74
e 39 75
e 39 76
e 39 78
e 39 79
e 39 80
e 39 81
e 39 82
e 39 85
e 39 87
e 39 88
e 39 89
e 39 90
e 39 92
e 39 93
e 39 94
e 39 95
e 39 96
e 39 97
e 39 98
e 39 99
e 39 104
e 39 108
e 39 109
e 39 110
e 39 113
e 39 114
e 39 115
e 39 116
e 39 117
e 39 118
e 39 119
e 39 120
e 39 122
e 39 123
e 39 124
e 39 126
e 39 127
e 39 128
e 39 130
e 39 131
e 39 135
e 39 136
e 39 137
e 39 139
e 40 43
e 40 44
e 40 45
e 40 46
e 40 47
e 40 48
e 40 49
e 40 50
e 40 53
e 40 54
e 40 57
e 40 58
e 40 59
e 40 60
e 40 61
e 40 62
e 40 63
e 40 64
e 40 66
e 40 67
e 40 68
e 40 69
e 40 71
e 40 72
e 40 73
e 40 74
e 40 75
e 40 76
e 40 77
e 40 78
e 40 80
e 40 84
e 40 85
e 40 88
e 40 89
e 40 90
e 40 91
e 40 92
e 40 94
e 40 95
e 40 96
e 40 97
e 40 98
e 40 99
e 40 100
e 40 101
e 40 103
e 40 104
e 40 105
e 40 107
e 40 108
e 40 110
e 40 111
e 40 112
e 40 113
e 40 114
e 40 116
e 40 117
e 40 118
e 40 119
e 40 120
e 40 121
e 40 122
e 40 123
e 40 124
e 40 125
e 40 126
e 40 128
e 40 129
e 40 131
e 40 132
e 40 133
e 40 134
e 40 135
e 40 136
e 40 138
e 40 139
e 41 62
e 41 63
e 41 64
e 41 65
e 41 66
e 41 67
e 41 68
e 41 69
e 41 72
e 41 73
e 41 74
e 41 75
e 41 77
e 41 78
e 41 79
e 41 80
e 41 81
e 41 82
e 41 83
e 41 84
e 41 85
e 41 89
e 41 90
e 41 91
e 41 92
e 41 93
e 41 95
e 41 98
e 41 100
e 41 101
e 41 102
e 41 103
e 41 105
e 41 106
e 41 107
e 41 108
e 41 110
e 41 111
e 41 112
e 41 113
e 41 114
e 41 116
e 41 117
e 41 118
e 41 119
e 41 120
e 41 121
e 41 125
e 41 126
e 41 127
e 41 128
e 41 129
e 41 130
e 41 131
e 41 132
e 41 133
e 41 134
e 41 136
e 41 137
e 41 139
e 41 140
e 42 61
e 42 62
e 42 63
e 42 64
e 42 65
e 42 66
e 42 67
e 42 68
e 42 69
e 42 70
e 42 72
e 42 73
e 42 74
e 42 77
e 42 78
e 42 81
e 42 83
e 42 84
e 42 85
e 42 86
e 42 87
e 42 88
e 42 89
e 42 90
e 42 91
e 42 92
e 42 94
e 42 95
e 42 96
e 42 97
e 42 98
e 42 99
e 42 100
e 42 101
e 42 102
e 42 103
e 42 104
e 42 105
e 42 106
e 42 107
e 42 108
e 42 111
e 42 113
e 42 114
e 42 116
e 42 117
e 42 119
e 42 120
e 42 121
e 42 122
e 42 123
e 42 124
e 42 125
e 42 126
e 42 127
e 42 129
e 42 130
e 42 131
e 42 132
e 42 133
e 42 134
e 42 135
e 42 136
e 42 137
e 42 138
e 42 139
e 42 140
e 43 61
e 43 62
e 43 63
e 43 64
e 43 66
e 43 68
e 43 69
e 43 70
e 43 71
e 43 72
e 43 74
e 43 75
e 43 79
e 43 82
e 43 83
e 43 85
e 43 86
e 43 87
e 43 88
e 43 90
e 43 91
e 43 92
e 43 93
e 43 94
e 43 95
e 43 96
e 43 97
e 43 98
e 43 99
e 43 101
e 43 102
e 43 103
e 43 105
e 43 106
e 43 107
e 43 108
e 43 109
e 43 110
e 43 111
e 43 112
e 43 115
e 43 117
e 43 118
e 43 119
e 43 120
e 43 121
e 43 122
e 43 124
e 43 125
e 43 126
e 43 128
e 43 129
e 43 130
e 43 131
e 43 132
e 43 133
e 43 134
e 43 135
e 43 138
e 43 139
e 43 140
e 44 61
e 44 62
e 44 63
e 44 64
e 44 67
e 44 68
e 44 70
e 44 72
e 44 74
e 44 75
e 44 77
e 44 79
e 44 81
e 44 84
e 44 85
e 44 86
e 44 88
e 44 89
e 44 90
e 44 91
e 44 92
e 44 93
e 44 94
e 44 97
e 44 98
e 44 99
e 44 100
e 44 101
e 44 102
e 44 103
e 44 104
e 44 108
e 44 111
e 44 113
e 44 114
e 44 115
e 44 116
e 44 117
e 44 118
e 44 119
e 44 120
e 44 121
e 44 122
e 44 123
e 44 124
e 44 125
e 44 126
e 44 127
e 44 128
e 44 129
e 44 130
e 44 132
e 44 133
e 44 134
e 44 135
e 44 136
e 44 137
e 44 139
e 44 140
e 45 61
e 45 62
e 45 63
e 45 64
e 45 65
e 45 66
e 45 67
e 45 68
e 45 69
e 45 70
e 45 71
e 45 72
e 45 73
e 45 74
e 45 75
e 45 76
e 45 77
e 45 78
e 45 80
e 45 82
e 45 84
e 45 87
e 45 89
e 45 90
e 45 91
e 45 92
e 45 93
e 45 95
e 45 97
e 45 98
e 45 99
e 45 100
e 45 101
e 45 102
e 45 103
e 45 105
e 45 106
e 45 108
e 45 110
e 45 111
e 45 112
e 45 113
e 45 114
e 45 115
e 45 117
e 45 118
e 45 119
e 45 121
e 45 123
e 45 124
e 45 126
e 45 127
e 45 130
e 45 131
e 45 132
e 45 133
e 45 135
e 45 136
e 45 137
e 45 138
e 45 139
e 45 140
e 46 63
e 46 65
e 46 66
e 46 67
e 46 68
e 46 69
e 46 70
e 46 71
e 46 72
e 46 73
e 46 76
e 46 77
e 46 79
e 46 80
e 46 81
e 46 82
e 46 83
e 46 84
e 46 85
e 46 86
e 46 87
e 46 89
e 46 92
e 46 93
e 46 94
e 46 95
e 46 96
e 46 97
e 46 98
e 46 100
e 46 101
e 46 103
e 46 106
e 46 107
e 46 108
e 46 109
e 46 111
e 46 112
e 46 114
e 46 115
e 46 116
e 46 117
e 46 118
e 46 120
e 46 121
e 46 123
e 46 125
e 46 126
e 46 128
e 46 130
e 46 131
e 46 132
e 46 133
e 46 134
e 46 135
e 46 136
e 46 137
e 46 138
e 46 139
e 46 140
e 47 61
e 47 62
e 47 63
e 47 65
e 47 69
e 47 70
e 47 73
e 47 74
e 47 75
e 47 76
e 47 77
e 47 79
e 47 80
e 47 81
e 47 83
e 47 85
e 47 86
e 47 87
e 47 89
e 47 90
e 47 91
e 47 92
e 47 93
e 47 95
e 47 96
e 47 98
e 47 99
e 47 100
e 47 101
e 47 103
e 47 104
e 47 105
e 47 106
e 47 108
e 47 109
e 47 111
e 47 114
e 47 115
e 47 117
e 47 118
e 47 120
e 47 121
e 47 124
e 47 125
e 47 127
e 47 128
e 47 129
e 47 131
e 47 133
e 47 136
e 47 137
e 47 138
e 47 139
e 47 140
e 48 62
e 48 63
e 48 64
e 48 65
e 48 66
e 48 67
e 48 68
e 48 69
e 48 71
e 48 73
e 48 74
e 48 76
e 48 77
e 48 79
e 48 80
e 48 81
e 48 83
e 48 84
e 48 86
e 48 89
e 48 90
e 48 92
e 48 93
e 48 94
e 48 97
e 48 100
e 48 101
e 48 102
e 48 103
e 48 105
e 48 106
e 48 107
e 48 109
e 48 110
e 48 111
e 48 113
e 48 114
e 48 116
e 48 117
e 48 118
e 48 119
e 48 120
e 48 121
e 48 122
e 48 123
e 48 124
e 48 126
e 48 127
e 48 129
e 48 130
e 48 131
e 48 132
e 48 133
e 48 135
e 48 137
e 48 138
e 48 139
e 48 140
e 49 61
e 49 63
e 49 64
e 49 66
e 49 67
e 49 68
e 49 69
e 49 70
e 49 73
e 49 74
e 49 75
e 49 76
e 49 77
e 49 78
e 49 79
e 49 81
e 49 82
e 49 84
e 49 85
e 49 87
e 49 89
e 49 90
e 49 91
e 49 93
e 49 95
e 49 96
e 49 98
e 49 99
e 49 100
e 49 101
e 49 102
e 49 103
e 49 104
e 49 106
e 49 108
e 49 109
e 49 110
e 49 111
e 49 112
e 49 115
e 49 116
e 49 117
e 49 119
e 49 120
e 49 121
e 49 122
e 49 123
e 49 124
e 49 125
e 49 126
e 49 128
e 49 129
e 49 130
e 49 132
e 49 134
e 49 136
e 49 137
e 49 138
e 49 140
e 50 63
e 50 65
e 50 66
e 50 67
e 50 68
e 50 69
e 50 70
e 50 71
e 50 75
e 50 77
e 50 78
e 50 79
e 50 80
e 50 81
e 50 82
e 50 83
e 50 84
e 50 85
e 50 86
e 50 87
e 50 88
e 50 89
e 50 90
e 50 91
e 50 92
e 50 93
e 50 94
e 50 95
e 50 98
e 50 99
e 50 100
e 50 101
e 50 103
e 50 104
e 50 105
e 50 107
e 50 110
e 50 111
e 50 112
e 50 113
e 50 114
e 50 115
e 50 116
e 50 117
e 50 118
e 50 120
e 50 121
e 50 122
e 50 123
e 50 124
e 50 125
e 50 126
e 50 127
e 50 128
e 50 129
e 50 130
e 50 131
e 50 132
e 50 133
e 50 134
e 50 135
e 50 136
e 50 137
e 50 138
e 50 140
e 51 61
e 51 62
e 51 63
e 51 64
e 51 66
e 51 68
e 51 69
e 51 70
e 51 71
e 51 73
e 51 74
e 51 75
e 51 76
e 51 77
e 51 78
e 51 79
e 51 80
e 51 81
e 51 82
e 51 83
e 51 84
e 51 85
e 51 86
e 51 88
e 51 89
e 51 90
e 51 91
e 51 92
e 51 93
e 51 94
e 51 95
e 51 96
e 51 97
e 51 99
e 51 101
e 51 103
e 51 104
e 51 105
e 51 106
e 51 110
e 51 112
e 51 113
e 51 114
e 51 115
e 51 116
e 51 117
e 51 120
e 51 121
e 51 122
e 51 123
e 51 125
e 51 126
e 51 129
e 51 130
e 51 132
e 51 133
e 51 134
e 51 135
e 51 136
e 51 137
e 51 138
e 51 139
e 51 140
e 52 61
e 52 64
e 52 65
e 52 66
e 52 67
e 52 69
e 52 70
e 52 72
e 52 75
e 52 76
e 52 77
e 52 78
e 52 79
e 52 80
e 52 81
e 52 82
e 52 83
e 52 84
e 52 85
e 52 86
e 52 88
e 52 89
e 52 90
e 52 91
e 52 94
e 52 95
e 52 96
e 52 98
e 52 99
e 52 101
e 52 103
e 52 105
e 52 106
e 52 109
e 52 110
e 52 112
e 52 113
e 52 114
e 52 115
e 52 116
e 52 117
e 52 120
e 52 121
e 52 122
e 52 123
e 52 124
e 52 125
e 52 126
e 52 127
e 52 128
e 52 129
e 52 130
e 52 132
e 52 133
e 52 134
e 52 135
e 52 136
e 52 137
e 52 139
e 52 140
e 53 61
e 53 62
e 53 64
e 53 66
e 53 67
e 53 68
e 53 69
e 53 71
e 53 73
e 53 74
e 53 75
e 53 76
e 53 78
e 53 79
e 53 80
e 53 81
e 53 84
e 53 85
e 53 86
e 53 87
e 53 88
e 53 89
e 53 90
e 53 91
e 53 92
e 53 93
e 53 94
e 53 95
e 53 97
e 53 98
e 53 99
e 53 101
e 53 102
e 53 103
e 53 104
e 53 105
e 53 106
e 53 107
e 53 109
e 53 111
e 53 113
e 53 114
e 53 116
e 53 117
e 53 118
e 53 119
e 53 120
e 53 121
e 53 122
e 53 123
e 53 124
e 53 125
e 53 127
e 53 128
e 53 129
e 53 131
e 53 133
e 53 136
e 53 137
e 53 139
e 54 61
e 54 63
e 54 64
e 54 65
e 54 66
e 54 68
e 54 69
e 54 70
e 54 71
e 54 72
e 54 73
e 54 74
e 54 77
e 54 78
e 54 79
e 54 80
e 54 81
e 54 82
e 54 83
e 54 84
e 54 85
e 54 86
e 54 87
e 54 88
e 54 90
e 54 93
e 54 94
e 54 95
e 54 96
e 54 97
e 54 98
e 54 99
e 54 100
e 54 103
e 54 104
e 54 107
e 54 111
e 54 113
e 54 116
e 54 117
e 54 119
e 54 123
e 54 124
e 54 125
e 54 126
e 54 127
e 54 130
e 54 131
e 54 132
e 54 133
e 54 134
e 54 135
e 54 136
e 54 137
e 54 138
e 54 139
e 54 140
e 55 61
e 55 63
e 55 64
e 55 65
e 55 66
e 55 67
e 55 68
e 55 70
e 55 73
e 55 74
e 55 75
e 55 77
e 55 78
e 55 82
e 55 83
e 55 84
e 55 85
e 55 86
e 55 87
e 55 88
e 55 89
e 55 91
e 55 92
e 55 93
e 55 94
e 55 95
e 55 96
e 55 97
e 55 98
e 55 99
e 55 100
e 55 101
e 55 102
e 55 103
e 55 104
e 55 105
e 55 108
e 55 109
e 55 110
e 55 111
e 55 113
e 55 114
e 55 116
e 55 117
e 55 119
e 55 120
e 55 121
e 55 122
e 55 124
e 55 125
e 55 126
e 55 127
e 55 128
e 55 130
e 55 133
e 55 134
e 55 135
e 55 136
e 55 137
e 55 138
e 55 139
e 55 140
e 56 61
e 56 62
e 56 63
e 56 64
e 56 65
e 56 67
e 56 68
e 56 69
e 56 70
e 56 71
e 56 75
e 56 76
e 56 77
e 56 79
e 56 80
e 56 81
e 56 82
e 56 83
e 56 84
e 56 85
e 56 86
e 56 87
e 56 90
e 56 91
e 56 92
e 56 93
e 56 94
e 56 96
e 56 97
e 56 98
e 56 99
e 56 100
e 56 101
e 56 102
e 56 103
e 56 104
e 56 105
e 56 106
e 56 107
e 56 108
e 56 109
e 56 110
e 56 111
e 56 113
e 56 115
e 56 117
e 56 118
e 56 119
e 56 121
e 56 123
e 56 124
e 56 126
e 56 128
e 56 130
e 56 131
e 56 132
e 56 133
e 56 134
e 56 135
e 56 136
e 56 137
e 56 138
e 56 139
e 56 140
e 57 61
e 57 62
e 57 63
e 57 64
e 57 65
e 57 66
e 57 67
e 57 68
e 57 69
e 57 70
e 57 72
e 57 73
e 57 75
e 57 77
e 57 79
e 57 82
e 57 83
e 57 84
e 57 86
e 57 87
e 57 88
e 57 90
e 57 91
e 57 92
e 57 93
e 57 95
e 57 97
e 57 99
e 57 101
e 57 102
e 57 104
e 57 105
e 57 106
e 57 109
e 57 110
e 57 111
e 57 112
e 57 118
e 57 119
e 57 120
e 57 121
e 57 122
e 57 125
e 57 126
e 57 128
e 57 130
e 57 131
e 57 132
e 57 133
e 57 134
e 57 137
e 57 138
e 57 139
e 57 140
e 58 62
e 58 63
e 58 64
e 58 67
e 58 68
e 58 69
e 58 70
e 58 71
e 58 72
e 58 73
e 58 75
e 58 76
e 58 81
e 58 82
e 58 83
e 58 84
e 58 85
e 58 86
e 58 87
e 58 89
e 58 91
e 58 92
e 58 93
e 58 95
e 58 96
e 58 97
e 58 99
e 58 100
e 58 103
e 58 104
e 58 108
e 58 109
e 58 110
e 58 111
e 58 112
e 58 113
e 58 114
e 58 116
e 58 118
e 58 120
e 58 121
e 58 122
e 58 123
e 58 124
e 58 128
e 58 129
e 58 130
e 58 132
e 58 133
e 58 135
e 58 136
e 58 137
e 58 139
e 58 140
e 59 63
e 59 66
e 59 69
e 59 70
e 59 71
e 59 72
e 59 73
e 59 76
e 59 78
e 59 79
e 59 81
e 59 82
e 59 83
e 59 84
e 59 85
e 59 86
e 59 87
e 59 88
e 59 89
e 59 90
e 59 91
e 59 92
e 59 93
e 59 94
e 59 95
e 59 96
e 59 97
e 59 102
e 59 104
e 59 105
e 59 106
e 59 108
e 59 109
e 59 110
e 59 111
e 59 112
e 59 114
e 59 115
e 59 120
e 59 121
e 59 124
e 59 125
e 59 127
e 59 128
e 59 130
e 59 131
e 59 132
e 59 133
e 59 134
e 59 135
e 59 136
e 59 137
e 59 138
e 59 139
e 59 140
e 60 61
e 60 62
e 60 63
e 60 64
e 60 65
e 60 66
e 60 67
e 60 68
e 60 69
e 60 70
e 60 71
e 60 72
e 60 75
e 60 76
e 60 77
e 60 78
e 60 79
e 60 81
e 60 82
e 60 83
e 60 84
e 60 85
e 60 86
e 60 87
e 60 89
e 60 92
e 60 93
e 60 94
e 60 95
e 60 97
e 60 98
e 60 100
e 60 102
e 60 103
e 60 104
e 60 105
e 60 108
e 60 109
e 60 111
e 60 113
e 60 114
e 60 115
e 60 118
e 60 119
e 60 120
e 60 122
e 60 123
e 60 125
e 60 126
e 60 127
e 60 128
e 60 129
e 60 130
e 60 131
e 60 132
e 60 133
e 60 134
e 60 136
e 60 137
e 60 138
e 60 140
e 61 81
e 61 82
e 61 83
e 61 84
e 61 85
e 61 86
e 61 87
e 61 88
e 61 89
e 61 90
e 61 91
e 61 93
e 61 94
e 61 95
e 61 97
e 61 100
e 61 102
e 61 103
e 61 104
e 61 106
e 61 107
e 61 108
e 61 111
e 61 112
e 61 113
e 61 114
e 61 116
e 61 117
e 61 119
e 61 120
e 61 122
e 61 124
e 61 125
e 61 126
e 61 127
e 61 128
e 61 130
e 61 131
e 61 134
e 61 136
e 61 137
e 61 138
e 61 140
e 62 81
e 62 82
e 62 83
e 62 85
e 62 86
e 62 89
e 62 90
e 62 91
e 62 93
e 62 94
e 62 97
e 62 98
e 62 99
e 62 101
e 62 102
e 62 103
e 62 104
e 62 105
e 62 106
e 62 107
e 62 108
e 62 111
e 62 112
e 62 113
e 62 114
e 62 115
e 62 120
e 62 122
e 62 123
e 62 125
e 62 127
e 62 128
e 62 129
e 62 130
e 62 131
e 62 133
e 62 135
e 62 136
e 62 137
e 62 139
e 62 140
e 63 81
e 63 82
e 63 83
e 63 84
e 63 85
e 63 87
e 63 88
e 63 90
e 63 91
e 63 93
e 63 94
e 63 95
e 63 96
e 63 97
e 63 98
e 63 100
e 63 101
e 63 103
e 63 107
e 63 108
e 63 109
e 63 111
e 63 112
e 63 114
e 63 115
e 63 117
e 63 118
e 63 119
e 63 122
e 63 123
e 63 124
e 63 126
e 63 127
e 63 128
e 63 129
e 63 134
e 63 137
e 63 138
e 63 139
e 63 140
e 64 81
e 64 82
e 64 83
e 64 84
e 64 85
e 64 86
e 64 88
e 64 89
e 64 90
e 64 91
e 64 93
e 64 94
e 64 95
e 64 97
e 64 98
e 64 100
e 64 101
e 64 102
e 64 103
e 64 104
e 64 105
e 64 106
e 64 107
e 64 108
e 64 112
e 64 113
e 64 114
e 64 115
e 64 116
e 64 117
e 64 119
e 64 121
e 64 122
e 64 123
e 64 124
e 64 125
e 64 127
e 64 128
e 64 129
e 64 130
e 64 131
e 64 134
e 64 136
e 64 138
e 65 81
e 65 82
e 65 84
e 65 86
e 65 87
e 65 89
e 65 90
e 65 91
e 65 92
e 65 93
e 65 94
e 65 95
e 65 96
e 65 98
e 65 99
e 65 101
e 65 102
e 65 104
e 65 105
e 65 106
e 65 107
e 65 108
e 65 109
e 65 112
e 65 115
e 65 116
e 65 117
e 65 118
e 65 119
e 65 121
e 65 123
e 65 124
e 65 126
e 65 128
e 65 129
e 65 130
e 65 131
e 65 132
e 65 133
e 65 134
e 65 136
e 65 137
e 65 138
e 65 139
e 65 140
e 66 81
e 66 82
e 66 83
e 66 84
e 66 86
e 66 87
e 66 88
e 66 90
e 66 91
e 66 92
e 66 93
e 66 94
e 66 95
e 66 96
e 66 97
e 66 98
e 66 99
e 66 100
e 66 101
e 66 104
e 66 105
e 66 106
e 66 107
e 66 108
e 66 109
e 66 110
e 66 111
e 66 113
e 66 114
e 66 115
e 66 117
e 66 118
e 66 119
e 66 120
e 66 122
e 66 123
e 66 125
e 66 126
e 66 127
e 66 128
e 66 129
e 66 130
e 66 131
e 66 132
e 66 133
e 66 134
e 66 136
e 66 137
e 66 139
e 67 81
e 67 82
e 67 83
e 67 85
e 67 86
e 67 87
e 67 88
e 67 89
e 67 90
e 67 91
e 67 92
e 67 94
e 67 95
e 67 96
e 67 97
e 67 99
e 67 100
e 67 101
e 67 103
e 67 105
e 67 107
e 67 110
e 67 111
e 67 112
e 67 113
e 67 115
e 67 116
e 67 119
e 67 120
e 67 121
e 67 122
e 67 124
e 67 126
e 67 127
e 67 128
e 67 129
e 67 130
e 67 131
e 67 133
e 67 134
e 67 135
e 67 136
e 67 137
e 67 138
e 67 139
e 67 140
e 68 81
e 68 83
e 68 84
e 68 85
e 68 87
e 68 88
e 68 89
e 68 91
e 68 93
e 68 94
e 68 95
e 68 96
e 68 97
e 68 100
e 68 102
e 68 103
e 68 105
e 68 106
e 68 107
e 68 109
e 68 110
e 68 111
e 68 112
e 68 113
e 68 119
e 68 121
e 68 124
e 68 126
e 68 127
e 68 128
e 68 129
e 68 130
e 68 131
e 68 135
e 68 137
e 68 138
e 68 140
e 69 82
e 69 83
e 69 84
e 69 85
e 69 86
e 69 88
e 69 90
e 69 91
e 69 92
e 69 94
e 69 96
e 69 97
e 69 98
e 69 99
e 69 100
e 69 101
e 69 104
e 69 105
e 69 107
e 69 108
e 69 109
e 69 112
e 69 114
e 69 115
e 69 116
e 69 117
e 69 118
e 69 119
e 69 120
e 69 121
e 69 122
e 69 124
e 69 125
e 69 127
e 69 128
e 69 129
e 69 130
e 69 131
e 69 132
e 69 134
e 69 135
e 69 136
e 69 137
e 69 138
e 70 82
e 70 84
e 70 85
e 70 87
e 70 88
e 70 89
e 70 90
e 70 92
e 70 93
e 70 94
e 70 95
e 70 98
e 70 99
e 70 100
e 70 101
e 70 103
e 70 104
e 70 105
e 70 106
e 70 110
e 70 111
e 70 114
e 70 117
e 70 119
e 70 120
e 70 121
e 70 125
e 70 126
e 70 129
e 70 130
e 70 131
e 70 133
e 70 134
e 70 136
e 70 137
e 70 139
e 70 140
e 71 82
e 71 84
e 71 85
e 71 86
e 71 87
e 71 88
e 71 89
e 71 90
e 71 91
e 71 92
e 71 93
e 71 94
e 71 95
e 71 97
e 71 98
e 71 99
e 71 100
e 71 102
e 71 103
e 71 104
e 71 105
e 71 106
e 71 107
e 71 109
e 71 110
e 71 111
e 71 112
e 71 113
e 71 114
e 71 115
e 71 116
e 71 117
e 71 118
e 71 121
e 71 122
e 71 123
e 71 124
e 71 125
e 71 126
e 71 128
e 71 129
e 71 130
e 71 131
e 71 132
e 71 133
e 71 134
e 71 135
e 71 136
e 71 139
e 71 140
e 72 81
e 72 82
e 72 83
e 72 84
e 72 85
e 72 86
e 72 87
e 72 88
e 72 89
e 72 90
e 72 92
e 72 93
e 72 94
e 72 95
e 72 96
e 72 97
e 72 98
e 72 99
e 72 100
e 72 101
e 72 102
e 72 105
e 72 107
e 72 108
e 72 109
e 72 110
e 72 111
e 72 112
e 72 115
e 72 117
e 72 118
e 72 119
e 72 120
e 72 121
e 72 122
e 72 124
e 72 125
e 72 127
e 72 128
e 72 130
e 72 131
e 72 132
e 72 134
e 72 137
e 73 81
e 73 82
e 73 84
e 73 85
e 73 86
e 73 88
e 73 90
e 73 91
e 73 92
e 73 93
e 73 94
e 73 95
e 73 98
e 73 99
e 73 100
e 73 102
e 73 103
e 73 104
e 73 105
e 73 106
e 73 108
e 73 109
e 73 111
e 73 114
e 73 118
e 73 119
e 73 120
e 73 122
e 73 123
e 73 124
e 73 125
e 73 126
e 73 128
e 73 129
e 73 130
e 73 131
e 73 134
e 73 135
e 73 136
e 73 137
e 73 138
e 73 139
e 74 81
e 74 82
e 74 83
e 74 84
e 74 85
e 74 86
e 74 87
e 74 89
e 74 90
e 74 91
e 74 92
e 74 93
e 74 94
e 74 96
e 74 97
e 74 98
e 74 100
e 74 101
e 74 102
e 74 103
e 74 104
e 74 107
e 74 109
e 74 110
e 74 111
e 74 112
e 74 113
e 74 114
e 74 115
e 74 116
e 74 118
e 74 119
e 74 120
e 74 122
e 74 123
e 74 125
e 74 126
e 74 127
e 74 128
e 74 129
e 74 130
e 74 131
e 74 134
e 74 139
e 74 140
e 75 81
e 75 84
e 75 85
e 75 87
e 75 88
e 75 90
e 75 92
e 75 93
e 75 94
e 75 95
e 75 96
e 75 97
e 75 98
e 75 99
e 75 100
e 75 102
e 75 103
e 75 104
e 75 105
e 75 107
e 75 108
e 75 110
e 75 111
e 75 112
e 75 113
e 75 114
e 75 115
e 75 117
e 75 118
e 75 119
e 75 120
e 75 121
e 75 122
e 75 123
e 75 124
e 75 125
e 75 127
e 75 128
e 75 129
e 75 130
e 75 131
e 75 132
e 75 133
e 75 134
e 75 135
e 75 136
e 75 137
e 75 139
e 75 140
e 76 81
e 76 82
e 76 83
e 76 85
e 76 86
e 76 87
e 76 88
e 76 89
e 76 92
e 76 93
e 76 94
e 76 96
e 76 97
e 76 98
e 76 99
e 76 100
e 76 102
e 76 104
e 76 105
e 76 106
e 76 108
e 76 109
e 76 116
e 76 117
e 76 119
e 76 120
e 76 121
e 76 122
e 76 123
e 76 124
e 76 125
e 76 128
e 76 129
e 76 130
e 76 132
e 76 134
e 76 135
e 76 138
e 76 139
e 76 140
e 77 82
e 77 84
e 77 86
e 77 87
e 77 89
e 77 90
e 77 91
e 77 93
e 77 95
e 77 96
e 77 97
e 77 99
e 77 100
e 77 101
e 77 103
e 77 104
e 77 105
e 77 106
e 77 109
e 77 111
e 77 113
e 77 114
e 77 115
e 77 116
e 77 117
e 77 118
e 77 119
e 77 120
e 77 121
e 77 122
e 77 123
e 77 124
e 77 125
e 77 126
e 77 127
e 77 128
e 77 129
e 77 130
e 77 131
e 77 133
e 77 134
e 77 136
e 77 137
e 77 138
e 77 139
e 78 81
e 78 82
e 78 84
e 78 85
e 78 88
e 78 89
e 78 90
e 78 91
e 78 92
e 78 93
e 78 94
e 78 95
e 78 98
e 78 99
e 78 100
e 78 102
e 78 104
e 78 105
e 78 106
e 78 107
e 78 108
e 78 109
e 78 111
e 78 113
e 78 114
e 78 115
e 78 117
e 78 118
e 78 121
e 78 122
e 78 123
e 78 124
e 78 125
e 78 127
e 78 128
e 78 129
e 78 130
e 78 132
e 78 133
e 78 134
e 78 135
e 78 137
e 78 138
e 78 139
e 78 140
e 79 82
e 79 83
e 79 84
e 79 85
e 79 86
e 79 88
e 79 89
e 79 91
e 79 92
e 79 93
e 79 95
e 79 96
e 79 97
e 79 98
e 79 99
e 79 100
e 79 102
e 79 103
e 79 104
e 79 105
e 79 106
e 79 107
e 79 108
e 79 109
e 79 112
e 79 116
e 79 117
e 79 118
e 79 119
e 79 120
e 79 122
e 79 125
e 79 127
e 79 131
e 79 132
e 79 135
e 79 137
e 79 139
e 79 140
e 80 81
e 80 82
e 80 85
e 80 86
e 80 88
e 80 91
e 80 93
e 80 94
e 80 95
e 80 96
e 80 98
e 80 99
e 80 100
e 80 101
e 80 102
e 80 103
e 80 104
e 80 105
e 80 106
e 80 107
e 80 108
e 80 109
e 80 110
e 80 111
e 80 112
e 80 116
e 80 117
e 80 118
e 80 119
e 80 124
e 80 125
e 80 126
e 80 129
e 80 130
e 80 131
e 80 133
e 80 135
e 80 136
e 80 137
e 80 138
e 80 139
e 80 140
e 81 101
e 81 102
e 81 103
e 81 104
e 81 105
e 81 106
e 81 107
e 81 108
e 81 109
e 81 110
e 81 111
e 81 112
e 81 116
e 81 117
e 81 118
e 81 119
e 81 120
e 81 122
e 81 123
e 81 124
e 81 125
e 81 126
e 81 127
e 81 128
e 81 129
e 81 132
e 81 134
e 81 135
e 81 137
e 81 138
e 81 139
e 81 140
e 82 102
e 82 103
e 82 104
e 82 105
e 82 106
e 82 107
e 82 109
e 82 110
e 82 111
e 82 112
e 82 113
e 82 116
e 82 118
e 82 120
e 82 121
e 82 122
e 82 124
e 82 126
e 82 127
e 82 128
e 82 129
e 82 130
e 82 131
e 82 132
e 82 133
e 82 134
e 82 135
e 82 136
e 82 137
e 82 138
e 82 140
e 83 101
e 83 102
e 83 104
e 83 106
e 83 108
e 83 109
e 83 110
e 83 111
e 83 112
e 83 113
e 83 114
e 83 117
e 83 118
e 83 119
e 83 120
e 83 121
e 83 124
e 83 127
e 83 128
e 83 129
e 83 131
e 83 132
e 83 134
e 83 135
e 83 136
e 83 138
e 83 139
e 83 140
e 84 101
e 84 102
e 84 103
e 84 104
e 84 105
e 84 106
e 84 107
e 84 108
e 84 109
e 84 111
e 84 112
e 84 113
e 84 114
e 84 115
e 84 116
e 84 117
e 84 118
e 84 119
e 84 120
e 84 121
e 84 122
e 84 123
e 84 124
e 84 125
e 84 129
e 84 130
e 84 131
e 84 132
e 84 134
e 84 135
e 84 136
e 84 139
e 85 102
e 85 105
e 85 106
e 85 108
e 85 109
e 85 110
e 85 111
e 85 112
e 85 113
e 85 114
e 85 116
e 85 117
e 85 118
e 85 119
e 85 120
e 85 122
e 85 124
e 85 125
e 85 126
e 85 127
e 85 128
e 85 129
e 85 130
e 85 131
e 85 132
e 85 134
e 85 136
e 85 138
e 85 139
e 85 140
e 86 102
e 86 105
e 86 106
e 86 108
e 86 110
e 86 111
e 86 112
e 86 113
e 86 114
e 86 115
e 86 116
e 86 117
e 86 118
e 86 119
e 86 120
e 86 121
e 86 123
e 86 124
e 86 125
e 86 126
e 86 127
e 86 132
e 86 133
e 86 134
e 86 135
e 86 138
e 86 140
e 87 101
e 87 102
e 87 103
e 87 104
e 87 106
e 87 107
e 87 108
e 87 109
e 87 111
e 87 114
e 87 115
e 87 116
e 87 118
e 87 119
e 87 120
e 87 122
e 87 124
e 87 125
e 87 128
e 87 129
e 87 131
e 87 132
e 87 135
e 87 136
e 87 137
e 87 139
e 88 101
e 88 102
e 88 103
e 88 104
e 88 106
e 88 107
e 88 108
e 88 109
e 88 110
e 88 111
e 88 112
e 88 114
e 88 117
e 88 118
e 88 120
e 88 121
e 88 122
e 88 123
e 88 125
e 88 126
e 88 127
e 88 130
e 88 131
e 88 132
e 88 133
e 88 134
e 88 137
e 88 138
e 88 139
e 89 101
e 89 102
e 89 103
e 89 104
e 89 105
e 89 106
e 89 107
e 89 108
e 89 109
e 89 112
e 89 113
e 89 115
e 89 117
e 89 119
e 89 120
e 89 121
e 89 122
e 89 124
e 89 125
e 89 126
e 89 128
e 89 130
e 89 132
e 89 133
e 89 134
e 89 135
e 89 137
e 89 139
e 89 140
e 90 102
e 90 106
e 90 108
e 90 109
e 90 110
e 90 111
e 90 112
e 90 113
e 90 114
e 90 115
e 90 118
e 90 119
e 90 120
e 90 121
e 90 122
e 90 123
e 90 124
e 90 126
e 90 127
e 90 129
e 90 130
e 90 132
e 90 134
e 90 137
e 90 138
e 90 139
e 90 140
e 91 103
e 91 104
e 91 105
e 91 106
e 91 107
e 91 108
e 91 109
e 91 110
e 91 111
e 91 112
e 91 116
e 91 117
e 91 118
e 91 119
e 91 122
e 91 126
e 91 127
e 91 128
e 91 129
e 91 130
e 91 131
e 91 132
e 91 133
e 91 134
e 91 135
e 91 136
e 91 138
e 91 140
e 92 101
e 92 102
e 92 103
e 92 104
e 92 106
e 92 107
e 92 108
e 92 109
e 92 110
e 92 112
e 92 113
e 92 115
e 92 117
e 92 118
e 92 119
e 92 120
e 92 121
e 92 122
e 92 123
e 92 125
e 92 126
e 92 127
e 92 128
e 92 129
e 92 131
e 92 132
e 92 133
e 92 134
e 92 136
e 92 137
e 92 139
e 92 140
e 93 101
e 93 102
e 93 103
e 93 104
e 93 106
e 93 108
e 93 109
e 93 110
e 93 112
e 93 113
e 93 114
e 93 115
e 93 118
e 93 121
e 93 122
e 93 123
e 93 124
e 93 125
e 93 126
e 93 127
e 93 129
e 93 130
e 93 131
e 93 132
e 93 135
e 93 136
e 93 137
e 93 138
e 93 139
e 94 101
e 94 103
e 94 104
e 94 105
e 94 107
e 94 108
e 94 109
e 94 111
e 94 112
e 94 116
e 94 117
e 94 118
e 94 121
e 94 122
e 94 125
e 94 126
e 94 127
e 94 128
e 94 129
e 94 134
e 94 135
e 94 136
e 94 137
e 94 138
e 94 139
e 94 140
e 95 102
e 95 104
e 95 105
e 95 106
e 95 108
e 95 109
e 95 110
e 95 112
e 95 113
e 95 115
e 95 116
e 95 117
e 95 119
e 95 120
e 95 121
e 95 122
e 95 125
e 95 126
e 95 127
e 95 128
e 95 131
e 95 132
e 95 134
e 95 137
e 95 138
e 95 139
e 96 102
e 96 104
e 96 105
e 96 106
e 96 108
e 96 109
e 96 110
e 96 111
e 96 112
e 96 114
e 96 115
e 96 116
e 96 117
e 96 118
e 96 119
e 96 120
e 96 122
e 96 123
e 96 124
e 96 125
e 96 126
e 96 127
e 96 129
e 96 131
e 96 132
e 96 133
e 96 136
e 96 137
e 96 138
e 96 139
e 97 101
e 97 102
e 97 103
e 97 104
e 97 105
e 97 106
e 97 107
e 97 108
e 97 109
e 97 110
e 97 112
e 97 113
e 97 114
e 97 115
e 97 116
e 97 117
e 97 119
e 97 121
e 97 122
e 97 123
e 97 124
e 97 126
e 97 129
e 97 133
e 97 135
e 97 137
e 97 139
e 97 140
e 98 101
e 98 102
e 98 103
e 98 105
e 98 106
e 98 107
e 98 108
e 98 110
e 98 112
e 98 113
e 98 114
e 98 117
e 98 118
e 98 119
e 98 120
e 98 121
e 98 122
e 98 123
e 98 125
e 98 127
e 98 128
e 98 129
e 98 130
e 98 131
e 98 134
e 98 136
e 98 139
e 99 101
e 99 102
e 99 104
e 99 105
e 99 106
e 99 108
e 99 109
e 99 110
e 99 111
e 99 112
e 99 114
e 99 116
e 99 117
e 99 118
e 99 119
e 99 120
e 99 121
e 99 122
e 99 125
e 99 126
e 99 127
e 99 130
e 99 131
e 99 132
e 99 134
e 99 135
e 99 137
e 99 138
e 99 139
e 99 140
e 100 103
e 100 105
e 100 106
e 100 107
e 100 109
e 100 110
e 100 111
e 100 112
e 100 114
e 100 115
e 100 116
e 100 118
e 100 119
e 100 120
e 100 121
e 100 122
e 100 123
e 100 126
e 100 128
e 100 129
e 100 131
e 100 133
e 100 135
e 100 136
e 100 137
e 100 138
e 101 121
e 101 122
e 101 123
e 101 124
e 101 125
e 101 127
e 101 128
e 101 129
e 101 130
e 101 131
e 101 133
e 101 135
e 101 136
e 101 140
e 102 122
e 102 124
e 102 125
e 102 126
e 102 129
e 102 130
e 102 131
e 102 132
e 102 133
e 102 136
e 102 137
e 102 138
e 102 139
e 102 140
e 103 121
e 103 122
e 103 123
e 103 124
e 103 126
e 103 128
e 103 129
e 103 130
e 103 131
e 103 132
e 103 133
e 103 135
e 103 137
e 103 139
e 104 121
e 104 122
e 104 123
e 104 124
e 104 125
e 104 126
e 104 127
e 104 129
e 104 130
e 104 131
e 104 132
e 104 133
e 104 134
e 104 136
e 104 137
e 104 138
e 105 122
e 105 123
e 105 124
e 105 125
e 105 126
e 105 127
e 105 128
e 105 131
e 105 133
e 105 134
e 105 136
e 105 137
e 106 122
e 106 123
e 106 124
e 106 126
e 106 127
e 106 128
e 106 129
e 106 130
e 106 131
e 106 133
e 106 134
e 106 135
e 106 136
e 106 137
e 106 138
e 106 139
e 106 140
e 107 121
e 107 122
e 107 125
e 107 126
e 107 127
e 107 128
e 107 129
e 107 130
e 107 131
e 107 133
e 107 135
e 107 137
e 107 138
e 107 140
e 108 121
e 108 122
e 108 123
e 108 124
e 108 125
e 108 126
e 108 127
e 108 128
e 108 129
e 108 130
e 108 132
e 108 133
e 108 134
e 108 135
e 108 136
e 108 138
e 108 139
e 108 140
e 109 121
e 109 122
e 109 123
e 109 125
e 109 126
e 109 127
e 109 128
e 109 129
e 109 131
e 109 132
e 109 134
e 109 135
e 109 136
e 109 137
e 109 138
e 109 139
e 109 140
e 110 121
e 110 122
e 110 123
e 110 124
e 110 125
e 110 126
e 110 128
e 110 130
e 110 132
e 110 133
e 110 136
e 110 137
e 110 139
e 110 140
e 111 121
e 111 122
e 111 123
e 111 124
e 111 125
e 111 126
e 111 127
e 111 128
e 111 129
e 111 130
e 111 131
e 111 132
e 111 133
e 111 134
e 111 135
e 111 138
e 111 139
e 112 121
e 112 122
e 112 125
e 112 127
e 112 129
e 112 130
e 112 131
e 112 132
e 112 134
e 112 135
e 112 136
e 112 137
e 112 139
e 113 121
e 113 122
e 113 123
e 113 126
e 113 127
e 113 128
e 113 129
e 113 131
e 113 133
e 113 134
e 113 135
e 113 136
e 113 137
e 113 138
e 113 140
e 114 122
e 114 123
e 114 124
e 114 125
e 114 126
e 114 127
e 114 128
e 114 131
e 114 132
e 114 133
e 114 135
e 114 136
e 114 137
e 114 138
e 114 140
e 115 121
e 115 122
e 115 124
e 115 125
e 115 126
e 115 127
e 115 129
e 115 131
e 115 132
e 115 133
e 115 134
e 115 135
e 115 137
e 115 138
e 115 139
e 115 140
e 116 121
e 116 123
e 116 124
e 116 125
e 116 126
e 116 128
e 116 129
e 116 130
e 116 131
e 116 132
e 116 133
e 116 134
e 116 135
e 116 137
e 116 139
e 116 140
e 117 121
e 117 123
e 117 124
e 117 125
e 117 127
e 117 129
e 117 130
e 117 131
e 117 132
e 117 133
e 117 134
e 117 135
e 117 138
e 117 139
e 118 121
e 118 123
e 118 124
e 118 125
e 118 126
e 118 127
e 118 129
e 118 130
e 118 131
e 118 133
e 118 135
e 118 137
e 118 139
e 118 140
e 119 121
e 119 123
e 119 124
e 119 125
e 119 126
e 119 128
e 119 130
e 119 132
e 119 133
e 119 135
e 119 136
e 119 137
e 120 121
e 120 122
e 120 124
e 120 126
e 120 127
e 120 129
e 120 130
e 120 131
e 120 132
e 120 135
e 120 136
e 120 137
e 120 138
e 120 139
e 120 140
