c FILE: balanced_graphs/balanced_140_7_10_4.col
c
c DESCRIPTION: Random balanced graph, 140 nodes,
c              partitions 7
c              edge probability 0.1
c
c G(140,7,0.1) graph
c number of vertices : 140
c max number of edges: 9730
c edge probability   : 0.1
c
c           Graph Stats
c number of vertices  : 140
c nonisolated vertices: 140
c number of edges     : 880
c edge density        : 0.0904
c max degree          : 22
c avg degree          : 12.57
c min degree          : 3
c
p col 140 880
e 1 22
e 1 26
e 1 32
e 1 47
e 1 49
e 1 58
e 1 64
e 1 78
e 1 90
e 1 95
e 1 96
e 1 111
e 1 117
e 1 120
e 1 131
e 2 30
e 2 39
e 2 60
e 2 92
e 2 98
e 2 101
e 2 109
e 2 118
e 2 120
e 3 26
e 3 28
e 3 41
e 3 43
e 3 48
e 3 53
e 3 64
e 3 80
e 3 83
e 3 87
e 3 93
e 3 105
e 3 113
e 3 121
e 3 130
e 3 136
e 3 138
e 4 32
e 4 60
e 4 63
e 4 69
e 4 77
e 4 101
e 4 109
e 4 111
e 4 115
e 4 124
e 4 132
e 4 134
e 5 21
e 5 25
e 5 27
e 5 30
e 5 44
e 5 52
e 5 71
e 5 87
e 5 91
e 5 92
e 5 94
e 5 105
e 5 111
e 5 118
e 5 133
e 6 31
e 6 32
e 6 33
e 6 74
e 6 104
e 6 128
e 6 129
e 6 135
e 6 140
e 7 30
e 7 51
e 7 56
e 7 61
e 7 75
e 7 80
e 7 81
e 7 84
e 7 91
e 7 93
e 7 103
e 7 137
e 8 34
e 8 40
e 8 49
e 8 50
e 8 56
e 8 63
e 8 84
e 8 99
e 8 104
e 8 110
e 8 118
e 8 121
e 9 26
e 9 61
e 9 69
e 9 72
e 9 79
e 9 91
e 9 119
e 9 128
e 9 135
e 10 34
e 10 49
e 10 55
e 10 65
e 10 75
e 10 96
e 10 105
e 10 107
e 10 138
e 11 22
e 11 24
e 11 43
e 11 48
e 11 55
e 11 71
e 11 76
e 11 84
e 11 86
e 11 101
e 11 109
e 11 114
e 11 127
e 11 131
e 11 136
e 12 48
e 12 63
e 12 67
e 12 95
e 12 99
e 12 100
e 12 103
e 12 105
e 12 107
e 12 109
e 12 116
e 12 138
e 13 32
e 13 37
e 13 38
e 13 45
e 13 52
e 13 53
e 13 54
e 13 65
e 13 69
e 13 99
e 13 101
e 13 102
e 13 105
e 13 113
e 13 123
e 14 31
e 14 35
e 14 36
e 14 37
e 14 60
e 14 76
e 14 77
e 14 78
e 14 87
e 14 93
e 14 99
e 14 109
e 14 117
e 14 119
e 14 120
e 14 131
e 14 139
e 15 39
e 15 41
e 15 48
e 15 65
e 15 78
e 15 81
e 15 85
e 15 94
e 15 103
e 15 105
e 15 106
e 15 108
e 15 110
e 15 113
e 15 124
e 15 140
e 16 48
e 16 51
e 16 60
e 16 64
e 16 70
e 16 92
e 16 114
e 16 130
e 17 35
e 17 43
e 17 47
e 17 48
e 17 51
e 17 57
e 17 61
e 17 62
e 17 66
e 17 81
e 17 84
e 17 122
e 17 125
e 17 129
e 18 31
e 18 32
e 18 41
e 18 56
e 18 63
e 18 66
e 18 72
e 18 91
e 19 22
e 19 32
e 19 39
e 19 54
e 19 55
e 19 60
e 19 65
e 19 68
e 19 69
e 19 76
e 19 81
e 19 92
e 19 105
e 19 106
e 19 108
e 19 111
e 19 115
e 19 132
e 19 137
e 20 22
e 20 34
e 20 36
e 20 38
e 20 48
e 20 72
e 20 88
e 20 90
e 20 95
e 20 110
e 20 113
e 20 137
e 21 53
e 21 54
e 21 64
e 21 67
e 21 84
e 21 89
e 21 102
e 21 103
e 21 131
e 21 133
e 21 136
e 22 44
e 22 48
e 22 72
e 22 73
e 22 96
e 22 100
e 22 105
e 22 110
e 22 122
e 22 136
e 23 41
e 23 44
e 23 62
e 23 84
e 23 88
e 23 94
e 23 97
e 23 112
e 23 116
e 24 41
e 24 49
e 24 52
e 24 64
e 24 72
e 24 83
e 24 101
e 24 103
e 24 114
e 24 116
e 24 118
e 24 132
e 24 135
e 24 138
e 25 69
e 25 83
e 25 105
e 25 130
e 26 74
e 26 78
e 26 94
e 26 96
e 26 115
e 26 119
e 26 120
e 26 131
e 26 132
e 26 137
e 27 46
e 27 58
e 27 74
e 27 88
e 27 113
e 27 139
e 28 66
e 28 67
e 28 82
e 28 96
e 28 97
e 28 101
e 28 116
e 29 52
e 29 60
e 29 71
e 29 112
e 29 115
e 29 123
e 29 135
e 30 46
e 30 64
e 30 80
e 30 98
e 30 108
e 30 113
e 30 128
e 31 41
e 31 47
e 31 57
e 31 62
e 31 104
e 31 134
e 31 137
e 32 45
e 32 48
e 32 65
e 32 69
e 32 77
e 32 94
e 32 109
e 32 133
e 32 137
e 32 138
e 33 42
e 33 69
e 33 80
e 33 82
e 33 104
e 33 105
e 33 108
e 33 116
e 33 117
e 33 132
e 34 41
e 34 53
e 34 61
e 34 62
e 34 73
e 34 77
e 34 79
e 34 88
e 34 100
e 34 134
e 34 138
e 35 51
e 35 61
e 35 67
e 35 70
e 35 75
e 35 83
e 35 95
e 35 108
e 35 121
e 36 41
e 36 42
e 36 43
e 36 47
e 36 48
e 36 53
e 36 59
e 36 103
e 36 113
e 36 120
e 36 124
e 36 134
e 37 61
e 38 46
e 38 48
e 38 56
e 38 68
e 38 106
e 38 111
e 38 117
e 38 118
e 38 126
e 38 135
e 38 139
e 39 61
e 39 69
e 39 94
e 39 100
e 39 135
e 40 43
e 40 61
e 40 85
e 40 86
e 40 91
e 40 135
e 41 61
e 41 73
e 41 74
e 41 77
e 41 83
e 41 84
e 41 90
e 41 92
e 41 94
e 41 102
e 41 114
e 41 127
e 41 139
e 41 140
e 42 94
e 42 96
e 42 101
e 42 111
e 42 112
e 42 114
e 42 115
e 42 127
e 42 129
e 43 74
e 43 81
e 43 108
e 43 109
e 43 110
e 43 125
e 43 137
e 44 71
e 44 82
e 44 97
e 44 104
e 44 106
e 44 113
e 44 116
e 44 134
e 44 139
e 45 82
e 45 83
e 45 85
e 45 102
e 45 106
e 45 112
e 45 113
e 45 117
e 45 119
e 45 125
e 45 130
e 46 61
e 46 65
e 46 81
e 46 83
e 46 95
e 46 100
e 46 104
e 46 119
e 46 121
e 46 124
e 47 64
e 47 76
e 47 82
e 47 87
e 47 98
e 47 101
e 47 113
e 47 119
e 47 128
e 47 134
e 48 67
e 48 79
e 48 103
e 48 112
e 48 121
e 48 131
e 48 133
e 48 139
e 48 140
e 49 62
e 49 102
e 49 104
e 49 107
e 49 115
e 49 120
e 50 62
e 50 76
e 50 78
e 50 88
e 50 89
e 50 90
e 50 102
e 50 103
e 50 107
e 50 114
e 50 123
e 50 125
e 50 127
e 50 128
e 51 63
e 51 67
e 51 68
e 51 77
e 51 79
e 51 81
e 51 93
e 51 100
e 51 105
e 51 106
e 51 123
e 51 128
e 51 138
e 52 65
e 52 95
e 52 98
e 52 101
e 52 103
e 52 111
e 53 68
e 53 75
e 53 90
e 53 96
e 53 114
e 53 118
e 53 129
e 53 131
e 54 93
e 54 103
e 54 106
e 54 118
e 54 128
e 54 133
e 54 137
e 55 78
e 55 104
e 55 117
e 55 137
e 56 65
e 56 81
e 56 82
e 56 90
e 56 111
e 56 113
e 56 123
e 56 127
e 56 133
e 57 61
e 57 74
e 57 91
e 57 107
e 57 109
e 57 113
e 57 121
e 58 71
e 58 85
e 58 89
e 58 98
e 58 115
e 58 120
e 58 124
e 58 139
e 59 79
e 59 93
e 59 109
e 59 133
e 59 139
e 60 62
e 60 64
e 60 67
e 60 68
e 60 72
e 60 85
e 60 97
e 60 106
e 60 115
e 60 124
e 61 82
e 61 83
e 61 94
e 61 95
e 61 98
e 61 113
e 61 129
e 61 133
e 61 139
e 62 81
e 62 82
e 62 85
e 62 91
e 62 95
e 62 104
e 62 106
e 62 109
e 62 122
e 62 123
e 62 128
e 62 133
e 63 81
e 63 95
e 63 98
e 63 110
e 63 114
e 63 118
e 63 123
e 63 133
e 64 85
e 64 88
e 64 92
e 64 97
e 64 103
e 64 114
e 64 127
e 65 89
e 65 94
e 65 105
e 65 115
e 65 128
e 66 104
e 66 112
e 67 82
e 67 89
e 67 93
e 67 100
e 67 101
e 67 125
e 68 93
e 68 105
e 68 118
e 68 123
e 68 129
e 68 130
e 68 133
e 68 135
e 69 82
e 69 96
e 69 106
e 69 117
e 69 122
e 69 126
e 69 133
e 69 134
e 69 137
e 69 140
e 70 81
e 70 82
e 70 83
e 70 85
e 70 90
e 70 94
e 70 100
e 70 107
e 70 110
e 70 112
e 70 114
e 70 116
e 70 123
e 70 140
e 71 109
e 71 123
e 71 140
e 72 83
e 72 89
e 72 115
e 72 117
e 72 122
e 72 136
e 73 93
e 73 96
e 73 97
e 73 108
e 73 113
e 73 114
e 73 124
e 74 81
e 74 91
e 74 116
e 74 125
e 74 138
e 75 90
e 75 120
e 75 121
e 75 126
e 75 127
e 75 137
e 76 82
e 76 86
e 76 100
e 76 122
e 76 126
e 76 128
e 76 131
e 76 140
e 77 107
e 77 125
e 77 139
e 78 88
e 78 91
e 78 96
e 78 111
e 78 118
e 78 136
e 78 139
e 78 140
e 79 84
e 79 87
e 79 99
e 79 107
e 79 117
e 79 120
e 79 136
e 80 87
e 80 97
e 80 108
e 80 119
e 80 122
e 80 125
e 80 126
e 80 139
e 81 107
e 81 111
e 81 124
e 81 134
e 81 138
e 82 111
e 82 116
e 82 130
e 83 104
e 83 108
e 83 111
e 83 134
e 83 136
e 84 106
e 84 123
e 85 103
e 85 108
e 85 119
e 85 123
e 85 124
e 85 126
e 85 127
e 85 129
e 86 112
e 86 123
e 86 126
e 86 130
e 86 136
e 87 115
e 87 122
e 87 135
e 88 110
e 88 118
e 88 120
e 88 130
e 88 136
e 88 137
e 89 103
e 89 112
e 89 120
e 89 123
e 90 128
e 90 132
e 90 140
e 91 111
e 92 118
e 92 123
e 92 125
e 92 130
e 92 140
e 93 102
e 93 108
e 93 114
e 93 119
e 93 125
e 93 131
e 93 138
e 93 140
e 94 103
e 94 128
e 94 129
e 94 133
e 94 136
e 94 138
e 94 139
e 94 140
e 95 111
e 95 121
e 95 123
e 95 137
e 96 105
e 96 108
e 96 111
e 96 134
e 96 135
e 97 101
e 97 102
e 97 104
e 97 107
e 97 114
e 97 115
e 97 136
e 98 110
e 98 111
e 98 114
e 98 118
e 98 127
e 98 133
e 99 105
e 99 107
e 99 117
e 99 118
e 99 121
e 99 140
e 100 124
e 100 133
e 100 134
e 101 121
e 101 131
e 101 133
e 102 126
e 102 136
e 103 124
e 103 129
e 103 138
e 103 139
e 104 129
e 104 130
e 105 137
e 105 138
e 106 126
e 107 121
e 108 126
e 108 134
e 109 127
e 109 129
e 109 131
e 109 132
e 110 138
e 111 127
e 111 128
e 111 130
e 112 121
e 112 130
e 112 133
e 113 138
e 114 129
e 114 132
e 114 139
e 115 123
e 115 126
e 115 134
e 115 139
e 116 123
e 116 140
e 118 124
e 118 129
e 118 130
e 119 124
e 120 135
