c FILE: balanced_graphs/balanced_140_7_25_1.col
c
c DESCRIPTION: Random balanced graph, 140 nodes,
c              partitions 7
c              edge probability 0.25
c
c G(140,7,0.25) graph
c number of vertices : 140
c max number of edges: 9730
c edge probability   : 0.25
c
c           Graph Stats
c number of vertices  : 140
c nonisolated vertices: 140
c number of edges     : 2079
c edge density        : 0.2137
c max degree          : 41
c avg degree          : 29.70
c min degree          : 18
c
p col 140 2079
e 1 21
e 1 23
e 1 25
e 1 28
e 1 29
e 1 33
e 1 34
e 1 36
e 1 41
e 1 43
e 1 49
e 1 60
e 1 65
e 1 68
e 1 75
e 1 86
e 1 87
e 1 88
e 1 91
e 1 95
e 1 97
e 1 99
e 1 104
e 1 108
e 1 109
e 1 119
e 1 121
e 1 122
e 1 129
e 1 130
e 1 133
e 1 135
e 1 138
e 1 139
e 2 24
e 2 27
e 2 32
e 2 48
e 2 49
e 2 64
e 2 65
e 2 69
e 2 71
e 2 78
e 2 80
e 2 83
e 2 84
e 2 85
e 2 92
e 2 97
e 2 99
e 2 100
e 2 107
e 2 115
e 2 117
e 2 118
e 2 121
e 2 122
e 2 125
e 2 132
e 2 133
e 3 29
e 3 30
e 3 36
e 3 42
e 3 44
e 3 50
e 3 53
e 3 54
e 3 60
e 3 61
e 3 67
e 3 71
e 3 79
e 3 81
e 3 88
e 3 92
e 3 98
e 3 99
e 3 107
e 3 113
e 3 119
e 3 121
e 3 124
e 3 130
e 3 132
e 3 133
e 3 139
e 4 24
e 4 29
e 4 30
e 4 35
e 4 42
e 4 57
e 4 61
e 4 62
e 4 68
e 4 71
e 4 74
e 4 75
e 4 76
e 4 82
e 4 84
e 4 89
e 4 90
e 4 92
e 4 93
e 4 94
e 4 95
e 4 101
e 4 102
e 4 106
e 4 107
e 4 117
e 4 124
e 4 129
e 4 136
e 4 139
e 4 140
e 5 23
e 5 30
e 5 35
e 5 40
e 5 47
e 5 50
e 5 57
e 5 72
e 5 76
e 5 83
e 5 85
e 5 87
e 5 94
e 5 95
e 5 114
e 5 117
e 5 118
e 5 119
e 5 120
e 5 127
e 5 129
e 5 132
e 5 135
e 5 136
e 6 21
e 6 27
e 6 37
e 6 39
e 6 50
e 6 55
e 6 56
e 6 58
e 6 61
e 6 62
e 6 65
e 6 69
e 6 70
e 6 71
e 6 75
e 6 78
e 6 84
e 6 94
e 6 97
e 6 98
e 6 100
e 6 101
e 6 112
e 6 113
e 6 114
e 6 116
e 6 126
e 6 131
e 6 135
e 6 136
e 7 25
e 7 26
e 7 33
e 7 40
e 7 42
e 7 43
e 7 48
e 7 59
e 7 68
e 7 69
e 7 71
e 7 75
e 7 77
e 7 90
e 7 96
e 7 101
e 7 108
e 7 111
e 7 114
e 7 115
e 7 119
e 7 124
e 7 125
e 7 126
e 7 127
e 7 133
e 8 21
e 8 29
e 8 33
e 8 37
e 8 42
e 8 43
e 8 49
e 8 51
e 8 53
e 8 54
e 8 57
e 8 67
e 8 68
e 8 77
e 8 80
e 8 82
e 8 84
e 8 88
e 8 92
e 8 99
e 8 107
e 8 111
e 8 114
e 8 115
e 8 116
e 8 119
e 8 126
e 8 139
e 9 26
e 9 27
e 9 33
e 9 37
e 9 40
e 9 42
e 9 49
e 9 52
e 9 53
e 9 54
e 9 58
e 9 64
e 9 65
e 9 70
e 9 77
e 9 79
e 9 80
e 9 87
e 9 88
e 9 89
e 9 95
e 9 99
e 9 105
e 9 108
e 9 110
e 9 114
e 9 115
e 9 117
e 9 120
e 9 122
e 9 126
e 9 128
e 9 130
e 9 131
e 9 132
e 9 133
e 9 135
e 10 30
e 10 31
e 10 32
e 10 33
e 10 49
e 10 61
e 10 63
e 10 67
e 10 73
e 10 83
e 10 91
e 10 92
e 10 94
e 10 95
e 10 102
e 10 115
e 10 119
e 10 123
e 10 125
e 10 128
e 10 131
e 10 132
e 10 134
e 10 137
e 10 139
e 11 24
e 11 34
e 11 42
e 11 44
e 11 51
e 11 58
e 11 70
e 11 73
e 11 77
e 11 80
e 11 84
e 11 98
e 11 101
e 11 107
e 11 108
e 11 110
e 11 116
e 11 117
e 11 119
e 11 127
e 11 129
e 12 29
e 12 30
e 12 34
e 12 35
e 12 37
e 12 44
e 12 47
e 12 51
e 12 52
e 12 54
e 12 58
e 12 60
e 12 66
e 12 67
e 12 68
e 12 71
e 12 77
e 12 83
e 12 95
e 12 99
e 12 107
e 12 110
e 12 112
e 12 119
e 12 120
e 12 121
e 12 124
e 12 129
e 12 130
e 12 134
e 12 138
e 13 26
e 13 28
e 13 31
e 13 33
e 13 38
e 13 41
e 13 44
e 13 46
e 13 54
e 13 66
e 13 70
e 13 83
e 13 90
e 13 106
e 13 112
e 13 113
e 13 115
e 13 129
e 13 132
e 13 136
e 13 137
e 13 138
e 13 139
e 14 21
e 14 22
e 14 23
e 14 24
e 14 26
e 14 32
e 14 35
e 14 37
e 14 39
e 14 45
e 14 49
e 14 57
e 14 58
e 14 61
e 14 77
e 14 80
e 14 83
e 14 86
e 14 91
e 14 93
e 14 98
e 14 103
e 14 104
e 14 107
e 14 112
e 14 113
e 14 116
e 14 120
e 14 121
e 14 138
e 14 140
e 15 21
e 15 28
e 15 32
e 15 34
e 15 39
e 15 45
e 15 48
e 15 50
e 15 62
e 15 67
e 15 68
e 15 71
e 15 76
e 15 94
e 15 96
e 15 101
e 15 106
e 15 109
e 15 111
e 15 115
e 15 118
e 15 122
e 15 126
e 15 132
e 15 137
e 16 24
e 16 32
e 16 38
e 16 46
e 16 48
e 16 50
e 16 57
e 16 59
e 16 60
e 16 65
e 16 71
e 16 72
e 16 83
e 16 91
e 16 94
e 16 102
e 16 107
e 16 108
e 16 113
e 16 114
e 16 117
e 16 126
e 16 130
e 16 134
e 16 135
e 16 137
e 17 43
e 17 44
e 17 46
e 17 54
e 17 55
e 17 56
e 17 57
e 17 68
e 17 81
e 17 88
e 17 91
e 17 92
e 17 94
e 17 102
e 17 103
e 17 105
e 17 107
e 17 114
e 17 117
e 17 121
e 17 131
e 17 132
e 17 136
e 17 140
e 18 21
e 18 22
e 18 26
e 18 29
e 18 32
e 18 45
e 18 46
e 18 47
e 18 48
e 18 53
e 18 54
e 18 55
e 18 57
e 18 58
e 18 60
e 18 61
e 18 64
e 18 67
e 18 69
e 18 73
e 18 76
e 18 79
e 18 84
e 18 88
e 18 91
e 18 92
e 18 93
e 18 100
e 18 103
e 18 114
e 18 118
e 18 123
e 18 136
e 18 137
e 18 139
e 19 32
e 19 39
e 19 40
e 19 42
e 19 44
e 19 45
e 19 52
e 19 54
e 19 55
e 19 56
e 19 58
e 19 60
e 19 77
e 19 84
e 19 86
e 19 91
e 19 93
e 19 95
e 19 96
e 19 104
e 19 107
e 19 113
e 19 114
e 19 117
e 19 119
e 19 126
e 19 127
e 19 129
e 19 131
e 19 132
e 19 133
e 19 137
e 20 25
e 20 37
e 20 46
e 20 47
e 20 49
e 20 55
e 20 57
e 20 59
e 20 61
e 20 75
e 20 78
e 20 79
e 20 82
e 20 89
e 20 90
e 20 92
e 20 94
e 20 95
e 20 99
e 20 103
e 20 105
e 20 112
e 20 116
e 20 119
e 20 133
e 20 135
e 21 43
e 21 45
e 21 47
e 21 48
e 21 56
e 21 66
e 21 67
e 21 71
e 21 75
e 21 76
e 21 94
e 21 101
e 21 104
e 21 105
e 21 106
e 21 108
e 21 112
e 21 114
e 21 121
e 21 140
e 22 49
e 22 54
e 22 68
e 22 70
e 22 72
e 22 77
e 22 80
e 22 81
e 22 87
e 22 91
e 22 96
e 22 97
e 22 98
e 22 99
e 22 111
e 22 113
e 22 119
e 22 126
e 22 132
e 23 44
e 23 45
e 23 48
e 23 56
e 23 58
e 23 62
e 23 64
e 23 67
e 23 74
e 23 75
e 23 79
e 23 81
e 23 85
e 23 87
e 23 90
e 23 95
e 23 96
e 23 102
e 23 106
e 23 109
e 23 110
e 23 121
e 23 124
e 23 127
e 23 128
e 23 131
e 23 132
e 23 139
e 24 41
e 24 44
e 24 50
e 24 51
e 24 52
e 24 53
e 24 58
e 24 68
e 24 72
e 24 73
e 24 75
e 24 78
e 24 82
e 24 86
e 24 88
e 24 89
e 24 91
e 24 100
e 24 102
e 24 108
e 24 118
e 24 120
e 24 129
e 24 134
e 24 140
e 25 48
e 25 49
e 25 53
e 25 60
e 25 62
e 25 63
e 25 66
e 25 75
e 25 76
e 25 87
e 25 88
e 25 89
e 25 90
e 25 112
e 25 117
e 25 125
e 25 126
e 25 138
e 26 42
e 26 44
e 26 45
e 26 47
e 26 49
e 26 55
e 26 59
e 26 60
e 26 62
e 26 68
e 26 75
e 26 76
e 26 84
e 26 85
e 26 87
e 26 90
e 26 91
e 26 93
e 26 95
e 26 96
e 26 108
e 26 114
e 26 120
e 26 125
e 26 131
e 26 135
e 26 137
e 26 140
e 27 47
e 27 53
e 27 56
e 27 61
e 27 63
e 27 64
e 27 65
e 27 68
e 27 71
e 27 74
e 27 75
e 27 80
e 27 85
e 27 87
e 27 94
e 27 95
e 27 96
e 27 97
e 27 100
e 27 103
e 27 106
e 27 113
e 27 117
e 27 138
e 27 139
e 28 41
e 28 44
e 28 54
e 28 56
e 28 62
e 28 69
e 28 88
e 28 89
e 28 92
e 28 95
e 28 100
e 28 103
e 28 106
e 28 108
e 28 109
e 28 114
e 28 117
e 28 120
e 28 125
e 28 128
e 28 129
e 28 131
e 28 132
e 28 134
e 28 138
e 29 41
e 29 51
e 29 54
e 29 64
e 29 71
e 29 76
e 29 83
e 29 85
e 29 86
e 29 89
e 29 94
e 29 95
e 29 102
e 29 105
e 29 107
e 29 110
e 29 114
e 29 118
e 29 120
e 29 124
e 29 129
e 29 134
e 29 135
e 29 139
e 29 140
e 30 44
e 30 49
e 30 52
e 30 62
e 30 64
e 30 69
e 30 79
e 30 82
e 30 83
e 30 94
e 30 96
e 30 99
e 30 100
e 30 101
e 30 105
e 30 107
e 30 112
e 30 117
e 30 125
e 30 129
e 30 138
e 31 42
e 31 43
e 31 45
e 31 54
e 31 56
e 31 59
e 31 61
e 31 68
e 31 73
e 31 78
e 31 89
e 31 98
e 31 106
e 31 108
e 31 118
e 31 121
e 31 124
e 31 129
e 31 131
e 31 133
e 32 48
e 32 57
e 32 61
e 32 65
e 32 68
e 32 70
e 32 71
e 32 74
e 32 75
e 32 79
e 32 90
e 32 99
e 32 100
e 32 102
e 32 105
e 32 108
e 32 109
e 32 112
e 32 117
e 32 118
e 32 120
e 32 122
e 32 123
e 32 125
e 32 126
e 32 127
e 32 130
e 32 132
e 33 47
e 33 48
e 33 53
e 33 64
e 33 67
e 33 68
e 33 71
e 33 72
e 33 78
e 33 80
e 33 81
e 33 87
e 33 91
e 33 92
e 33 93
e 33 95
e 33 96
e 33 97
e 33 111
e 33 114
e 33 122
e 33 125
e 33 126
e 33 132
e 33 134
e 33 139
e 33 140
e 34 42
e 34 43
e 34 44
e 34 53
e 34 56
e 34 64
e 34 67
e 34 69
e 34 77
e 34 79
e 34 80
e 34 87
e 34 93
e 34 96
e 34 104
e 34 105
e 34 106
e 34 108
e 34 112
e 34 113
e 34 114
e 34 118
e 34 120
e 34 124
e 34 130
e 34 131
e 35 41
e 35 52
e 35 54
e 35 60
e 35 65
e 35 67
e 35 78
e 35 81
e 35 84
e 35 89
e 35 91
e 35 93
e 35 97
e 35 109
e 35 111
e 35 112
e 35 113
e 35 120
e 35 135
e 36 44
e 36 46
e 36 49
e 36 50
e 36 53
e 36 58
e 36 61
e 36 62
e 36 64
e 36 65
e 36 69
e 36 72
e 36 85
e 36 89
e 36 90
e 36 92
e 36 93
e 36 94
e 36 97
e 36 98
e 36 101
e 36 106
e 36 113
e 36 119
e 36 127
e 36 129
e 36 134
e 36 137
e 36 139
e 37 50
e 37 52
e 37 53
e 37 57
e 37 62
e 37 65
e 37 67
e 37 74
e 37 77
e 37 78
e 37 84
e 37 87
e 37 90
e 37 92
e 37 112
e 37 114
e 37 121
e 37 124
e 38 51
e 38 52
e 38 53
e 38 55
e 38 56
e 38 58
e 38 59
e 38 61
e 38 70
e 38 73
e 38 76
e 38 96
e 38 100
e 38 101
e 38 109
e 38 112
e 38 118
e 38 119
e 38 120
e 38 124
e 38 135
e 38 136
e 38 137
e 38 140
e 39 43
e 39 46
e 39 47
e 39 49
e 39 51
e 39 52
e 39 56
e 39 58
e 39 59
e 39 63
e 39 74
e 39 78
e 39 79
e 39 84
e 39 85
e 39 90
e 39 93
e 39 105
e 39 106
e 39 107
e 39 114
e 39 119
e 39 129
e 39 130
e 39 132
e 39 137
e 39 138
e 40 41
e 40 44
e 40 45
e 40 46
e 40 50
e 40 54
e 40 58
e 40 65
e 40 72
e 40 75
e 40 77
e 40 81
e 40 83
e 40 86
e 40 87
e 40 90
e 40 91
e 40 92
e 40 93
e 40 97
e 40 99
e 40 108
e 40 110
e 40 112
e 40 118
e 40 120
e 40 122
e 40 124
e 40 126
e 40 137
e 41 61
e 41 62
e 41 67
e 41 70
e 41 75
e 41 79
e 41 82
e 41 84
e 41 93
e 41 100
e 41 107
e 41 108
e 41 112
e 41 117
e 41 122
e 41 124
e 41 125
e 41 128
e 41 137
e 42 61
e 42 62
e 42 65
e 42 90
e 42 97
e 42 104
e 42 105
e 42 106
e 42 108
e 42 110
e 42 112
e 42 113
e 42 117
e 42 119
e 42 125
e 42 133
e 42 135
e 42 136
e 42 137
e 42 138
e 42 139
e 43 61
e 43 62
e 43 66
e 43 67
e 43 71
e 43 73
e 43 74
e 43 77
e 43 79
e 43 82
e 43 83
e 43 85
e 43 89
e 43 93
e 43 94
e 43 95
e 43 109
e 43 111
e 43 113
e 43 116
e 43 123
e 43 124
e 43 132
e 43 134
e 43 139
e 44 66
e 44 80
e 44 81
e 44 84
e 44 86
e 44 91
e 44 92
e 44 95
e 44 97
e 44 98
e 44 101
e 44 102
e 44 107
e 44 116
e 44 120
e 44 123
e 44 125
e 44 130
e 44 131
e 44 132
e 44 140
e 45 61
e 45 65
e 45 70
e 45 76
e 45 79
e 45 86
e 45 87
e 45 88
e 45 89
e 45 92
e 45 95
e 45 96
e 45 97
e 45 100
e 45 108
e 45 110
e 45 111
e 45 114
e 45 118
e 45 119
e 45 124
e 45 125
e 45 126
e 45 130
e 45 133
e 45 139
e 46 63
e 46 67
e 46 70
e 46 74
e 46 77
e 46 78
e 46 79
e 46 82
e 46 85
e 46 87
e 46 91
e 46 103
e 46 104
e 46 105
e 46 119
e 46 123
e 46 124
e 46 135
e 47 62
e 47 66
e 47 68
e 47 73
e 47 78
e 47 79
e 47 85
e 47 90
e 47 92
e 47 94
e 47 95
e 47 104
e 47 105
e 47 106
e 47 121
e 47 123
e 47 124
e 47 130
e 47 132
e 47 137
e 48 63
e 48 66
e 48 67
e 48 68
e 48 78
e 48 83
e 48 84
e 48 85
e 48 86
e 48 87
e 48 90
e 48 95
e 48 96
e 48 98
e 48 106
e 48 109
e 48 122
e 48 123
e 48 124
e 48 125
e 48 135
e 48 136
e 48 140
e 49 61
e 49 66
e 49 69
e 49 71
e 49 80
e 49 85
e 49 89
e 49 105
e 49 107
e 49 109
e 49 117
e 49 118
e 49 119
e 49 120
e 49 123
e 49 125
e 49 126
e 49 127
e 50 61
e 50 63
e 50 74
e 50 75
e 50 76
e 50 77
e 50 81
e 50 84
e 50 85
e 50 91
e 50 99
e 50 107
e 50 109
e 50 126
e 50 137
e 51 63
e 51 64
e 51 68
e 51 76
e 51 79
e 51 80
e 51 90
e 51 94
e 51 98
e 51 99
e 51 101
e 51 103
e 51 107
e 51 113
e 51 115
e 51 122
e 51 131
e 51 136
e 51 138
e 51 139
e 52 63
e 52 67
e 52 69
e 52 74
e 52 75
e 52 85
e 52 86
e 52 87
e 52 89
e 52 95
e 52 100
e 52 108
e 52 113
e 52 115
e 52 121
e 52 126
e 52 133
e 52 136
e 52 138
e 53 63
e 53 70
e 53 76
e 53 84
e 53 85
e 53 90
e 53 93
e 53 98
e 53 105
e 53 106
e 53 108
e 53 110
e 53 112
e 53 113
e 53 117
e 53 118
e 53 119
e 53 122
e 53 123
e 53 125
e 53 132
e 53 135
e 54 66
e 54 69
e 54 78
e 54 79
e 54 81
e 54 84
e 54 89
e 54 91
e 54 95
e 54 99
e 54 100
e 54 103
e 54 107
e 54 109
e 54 112
e 54 117
e 54 119
e 54 120
e 54 121
e 54 122
e 54 129
e 54 131
e 54 132
e 54 134
e 54 136
e 54 137
e 54 138
e 55 61
e 55 66
e 55 68
e 55 70
e 55 71
e 55 72
e 55 78
e 55 79
e 55 81
e 55 91
e 55 99
e 55 100
e 55 108
e 55 109
e 55 111
e 55 116
e 55 117
e 55 118
e 55 129
e 55 131
e 55 133
e 56 63
e 56 66
e 56 67
e 56 75
e 56 76
e 56 81
e 56 84
e 56 87
e 56 93
e 56 97
e 56 99
e 56 107
e 56 112
e 56 113
e 56 114
e 56 116
e 56 120
e 56 121
e 56 133
e 56 135
e 56 136
e 56 138
e 56 140
e 57 64
e 57 66
e 57 68
e 57 73
e 57 76
e 57 77
e 57 83
e 57 87
e 57 90
e 57 91
e 57 92
e 57 94
e 57 98
e 57 100
e 57 103
e 57 114
e 57 117
e 57 122
e 57 128
e 57 136
e 58 63
e 58 64
e 58 65
e 58 66
e 58 67
e 58 72
e 58 73
e 58 82
e 58 86
e 58 87
e 58 89
e 58 96
e 58 102
e 58 105
e 58 107
e 58 112
e 58 118
e 58 121
e 58 123
e 58 124
e 58 125
e 58 128
e 58 129
e 58 132
e 58 136
e 58 138
e 58 139
e 59 68
e 59 71
e 59 73
e 59 75
e 59 82
e 59 84
e 59 87
e 59 93
e 59 97
e 59 98
e 59 99
e 59 103
e 59 106
e 59 113
e 59 114
e 59 120
e 59 121
e 59 124
e 59 128
e 59 129
e 59 134
e 59 136
e 59 139
e 60 62
e 60 73
e 60 78
e 60 79
e 60 82
e 60 84
e 60 88
e 60 92
e 60 95
e 60 96
e 60 97
e 60 100
e 60 104
e 60 107
e 60 108
e 60 111
e 60 115
e 60 116
e 60 118
e 60 124
e 60 126
e 60 128
e 60 132
e 60 134
e 60 139
e 60 140
e 61 82
e 61 83
e 61 92
e 61 94
e 61 97
e 61 98
e 61 100
e 61 108
e 61 109
e 61 114
e 61 115
e 61 116
e 61 117
e 61 118
e 61 120
e 61 129
e 61 130
e 61 132
e 61 134
e 62 81
e 62 85
e 62 93
e 62 94
e 62 103
e 62 105
e 62 110
e 62 113
e 62 126
e 62 127
e 62 128
e 62 129
e 62 132
e 63 88
e 63 102
e 63 103
e 63 114
e 63 115
e 63 118
e 63 121
e 63 125
e 63 126
e 63 128
e 63 129
e 63 134
e 63 135
e 64 85
e 64 93
e 64 97
e 64 98
e 64 100
e 64 102
e 64 104
e 64 108
e 64 111
e 64 115
e 64 117
e 64 122
e 64 123
e 64 126
e 64 127
e 64 128
e 64 129
e 64 131
e 65 81
e 65 82
e 65 86
e 65 100
e 65 111
e 65 115
e 65 117
e 65 118
e 65 121
e 65 123
e 65 126
e 65 128
e 65 130
e 65 136
e 65 138
e 66 81
e 66 83
e 66 88
e 66 89
e 66 91
e 66 93
e 66 97
e 66 102
e 66 104
e 66 105
e 66 106
e 66 107
e 66 108
e 66 111
e 66 128
e 66 129
e 66 133
e 67 81
e 67 86
e 67 88
e 67 97
e 67 98
e 67 103
e 67 105
e 67 107
e 67 110
e 67 114
e 67 120
e 67 123
e 67 124
e 67 125
e 67 128
e 67 132
e 67 133
e 67 137
e 67 140
e 68 88
e 68 90
e 68 91
e 68 100
e 68 106
e 68 119
e 68 129
e 68 138
e 69 91
e 69 92
e 69 93
e 69 101
e 69 104
e 69 106
e 69 108
e 69 109
e 69 113
e 69 121
e 69 131
e 69 133
e 69 136
e 69 137
e 69 139
e 70 81
e 70 82
e 70 86
e 70 87
e 70 91
e 70 99
e 70 104
e 70 122
e 70 123
e 70 125
e 70 128
e 70 131
e 70 140
e 71 83
e 71 86
e 71 89
e 71 94
e 71 108
e 71 111
e 71 113
e 71 117
e 71 119
e 71 123
e 71 126
e 71 127
e 71 128
e 71 132
e 71 133
e 71 135
e 72 93
e 72 100
e 72 101
e 72 104
e 72 105
e 72 108
e 72 114
e 72 116
e 72 120
e 72 123
e 72 126
e 72 127
e 72 128
e 72 130
e 72 131
e 72 135
e 73 85
e 73 88
e 73 100
e 73 107
e 73 109
e 73 111
e 73 116
e 73 118
e 73 119
e 73 120
e 73 123
e 73 129
e 73 130
e 73 132
e 73 138
e 73 140
e 74 82
e 74 83
e 74 84
e 74 93
e 74 94
e 74 106
e 74 110
e 74 113
e 74 116
e 74 121
e 74 124
e 74 130
e 74 131
e 74 136
e 75 82
e 75 83
e 75 88
e 75 97
e 75 98
e 75 102
e 75 111
e 75 114
e 75 125
e 75 127
e 75 128
e 75 130
e 75 133
e 75 134
e 75 136
e 75 140
e 76 81
e 76 82
e 76 85
e 76 96
e 76 99
e 76 101
e 76 103
e 76 111
e 76 112
e 76 115
e 76 117
e 76 139
e 76 140
e 77 81
e 77 93
e 77 96
e 77 97
e 77 101
e 77 102
e 77 106
e 77 117
e 77 119
e 77 128
e 77 133
e 77 137
e 77 140
e 78 82
e 78 85
e 78 91
e 78 97
e 78 104
e 78 140
e 79 84
e 79 90
e 79 99
e 79 101
e 79 107
e 79 109
e 79 110
e 79 120
e 79 121
e 79 128
e 79 129
e 80 81
e 80 83
e 80 84
e 80 86
e 80 87
e 80 89
e 80 90
e 80 91
e 80 93
e 80 106
e 80 109
e 80 110
e 80 116
e 80 120
e 80 131
e 80 134
e 80 137
e 81 101
e 81 104
e 81 105
e 81 108
e 81 109
e 81 118
e 81 121
e 81 125
e 81 133
e 81 139
e 82 106
e 82 107
e 82 108
e 82 110
e 82 118
e 82 120
e 82 125
e 82 130
e 82 131
e 82 134
e 82 136
e 82 137
e 82 138
e 82 139
e 83 109
e 83 112
e 83 120
e 83 121
e 83 126
e 83 127
e 83 131
e 84 103
e 84 107
e 84 111
e 84 116
e 84 119
e 84 126
e 84 128
e 84 130
e 84 132
e 84 134
e 85 102
e 85 111
e 85 112
e 85 119
e 85 121
e 85 125
e 85 126
e 85 132
e 85 133
e 85 140
e 86 109
e 86 116
e 86 121
e 86 124
e 86 126
e 86 127
e 86 131
e 86 135
e 86 138
e 86 139
e 87 101
e 87 102
e 87 103
e 87 106
e 87 109
e 87 110
e 87 111
e 87 123
e 87 125
e 87 132
e 87 135
e 88 101
e 88 103
e 88 109
e 88 114
e 88 117
e 88 119
e 88 121
e 88 122
e 88 123
e 88 127
e 88 135
e 88 138
e 88 140
e 89 105
e 89 109
e 89 112
e 89 113
e 89 115
e 89 122
e 89 128
e 89 129
e 89 135
e 89 138
e 89 140
e 90 102
e 90 103
e 90 104
e 90 106
e 90 114
e 90 115
e 90 124
e 90 125
e 90 128
e 90 132
e 90 133
e 90 137
e 91 101
e 91 106
e 91 111
e 91 112
e 91 117
e 91 118
e 91 124
e 91 126
e 91 128
e 91 129
e 91 130
e 91 133
e 91 134
e 91 135
e 91 140
e 92 102
e 92 105
e 92 106
e 92 107
e 92 109
e 92 111
e 92 117
e 92 119
e 92 120
e 92 128
e 92 131
e 92 133
e 92 134
e 92 135
e 92 136
e 92 140
e 93 102
e 93 109
e 93 120
e 93 127
e 94 102
e 94 109
e 94 117
e 94 125
e 94 126
e 94 137
e 95 104
e 95 109
e 95 114
e 95 120
e 95 121
e 95 132
e 95 134
e 95 136
e 95 139
e 96 101
e 96 108
e 96 112
e 96 113
e 96 114
e 96 117
e 96 120
e 96 121
e 96 123
e 96 128
e 96 129
e 96 137
e 97 106
e 97 108
e 97 109
e 97 118
e 97 120
e 97 123
e 97 130
e 97 137
e 98 102
e 98 109
e 98 115
e 98 126
e 98 131
e 98 135
e 98 140
e 99 102
e 99 104
e 99 105
e 99 115
e 99 120
e 99 124
e 99 125
e 99 126
e 99 131
e 99 133
e 100 103
e 100 106
e 100 109
e 100 111
e 100 112
e 100 114
e 100 115
e 100 120
e 100 121
e 100 127
e 100 130
e 100 131
e 100 132
e 100 138
e 100 140
e 101 121
e 101 124
e 101 133
e 101 139
e 102 122
e 102 127
e 102 130
e 102 131
e 102 138
e 103 121
e 103 128
e 103 130
e 103 137
e 103 139
e 104 132
e 104 140
e 105 121
e 105 124
e 105 125
e 105 126
e 105 127
e 105 131
e 106 125
e 106 129
e 106 134
e 107 121
e 107 131
e 107 132
e 107 136
e 107 137
e 108 122
e 108 130
e 108 138
e 109 131
e 109 134
e 109 135
e 109 136
e 109 138
e 109 140
e 110 122
e 110 132
e 111 121
e 111 122
e 111 135
e 111 140
e 112 122
e 112 123
e 112 127
e 112 128
e 112 129
e 112 130
e 112 133
e 112 134
e 112 138
e 113 127
e 113 128
e 113 131
e 113 132
e 113 133
e 113 136
e 113 137
e 113 138
e 113 139
e 114 122
e 114 123
e 114 126
e 114 127
e 114 134
e 115 127
e 115 129
e 115 130
e 115 135
e 115 140
e 116 127
e 116 130
e 116 139
e 116 140
e 117 125
e 117 129
e 117 131
e 117 135
e 117 139
e 117 140
e 118 125
e 118 127
e 118 129
e 118 134
e 118 140
e 119 122
e 119 125
e 119 133
e 119 134
e 119 135
e 119 137
e 119 139
e 120 122
e 120 123
e 120 132
e 120 133
e 120 135
e 120 136
e 120 139
