c FILE: balanced_graphs/balanced_100_5_10_5.col
c
c DESCRIPTION: Random balanced graph, 100 nodes,
c              partitions 5
c              edge probability 0.1
c
c G(100,5,0.1) graph
c number of vertices : 100
c max number of edges: 4950
c edge probability   : 0.1
c
c           Graph Stats
c number of vertices  : 100
c nonisolated vertices: 100
c number of edges     : 365
c edge density        : 0.0737
c max degree          : 13
c avg degree          : 7.30
c min degree          : 2
c
p col 100 365
e 1 52
e 1 77
e 1 91
e 1 95
e 1 98
e 2 36
e 2 38
e 2 54
e 2 74
e 2 81
e 2 83
e 2 89
e 3 29
e 3 49
e 3 50
e 3 55
e 3 67
e 3 86
e 3 94
e 4 25
e 4 26
e 4 37
e 4 42
e 4 66
e 4 68
e 4 74
e 5 27
e 5 32
e 5 66
e 5 84
e 6 52
e 6 55
e 6 66
e 6 68
e 6 76
e 6 80
e 6 91
e 6 94
e 7 27
e 7 29
e 7 34
e 7 36
e 7 50
e 7 55
e 7 70
e 7 72
e 7 79
e 7 84
e 7 90
e 8 71
e 8 85
e 8 94
e 8 95
e 8 98
e 9 24
e 9 25
e 9 35
e 9 46
e 9 74
e 9 98
e 10 26
e 10 32
e 10 71
e 10 82
e 10 92
e 10 98
e 10 100
e 11 21
e 11 23
e 11 29
e 11 44
e 11 54
e 11 59
e 11 61
e 11 70
e 11 73
e 11 81
e 11 88
e 12 27
e 12 33
e 12 36
e 12 47
e 12 59
e 12 67
e 12 71
e 12 79
e 12 96
e 12 98
e 12 100
e 13 27
e 13 30
e 13 33
e 13 34
e 13 44
e 13 51
e 13 58
e 13 59
e 13 71
e 14 24
e 14 31
e 14 32
e 14 45
e 14 47
e 14 48
e 14 49
e 14 79
e 14 85
e 14 93
e 14 94
e 15 39
e 15 58
e 15 75
e 15 94
e 15 99
e 16 21
e 16 40
e 16 55
e 16 57
e 16 66
e 16 70
e 17 21
e 17 32
e 17 44
e 17 54
e 17 56
e 17 81
e 18 29
e 18 40
e 18 56
e 18 61
e 18 64
e 18 68
e 18 82
e 18 93
e 18 97
e 19 38
e 19 40
e 19 44
e 19 48
e 19 55
e 19 65
e 19 82
e 19 85
e 19 89
e 19 92
e 19 94
e 20 24
e 20 41
e 20 47
e 20 53
e 20 59
e 20 75
e 20 76
e 20 98
e 21 42
e 21 52
e 21 55
e 21 60
e 21 72
e 21 79
e 21 99
e 22 49
e 22 50
e 22 54
e 22 55
e 22 89
e 23 87
e 23 98
e 24 56
e 24 74
e 24 92
e 24 99
e 25 49
e 25 51
e 25 52
e 25 68
e 25 72
e 25 80
e 26 80
e 26 91
e 27 59
e 27 98
e 27 100
e 28 43
e 28 48
e 28 53
e 28 54
e 28 62
e 28 76
e 28 77
e 28 86
e 28 91
e 29 48
e 29 71
e 29 96
e 30 41
e 30 45
e 30 55
e 30 58
e 30 59
e 30 69
e 30 74
e 30 85
e 31 42
e 31 48
e 31 68
e 31 75
e 31 85
e 31 88
e 32 66
e 32 74
e 32 75
e 32 78
e 32 81
e 32 82
e 32 86
e 32 87
e 33 71
e 33 75
e 33 80
e 33 85
e 34 43
e 34 46
e 34 66
e 34 69
e 34 79
e 34 88
e 35 46
e 35 52
e 35 59
e 36 59
e 36 78
e 36 92
e 37 51
e 37 64
e 37 68
e 37 94
e 37 99
e 38 45
e 38 53
e 38 64
e 38 72
e 38 79
e 38 80
e 38 87
e 39 45
e 39 61
e 39 89
e 39 99
e 40 76
e 40 82
e 40 88
e 40 91
e 40 94
e 40 96
e 41 64
e 41 65
e 41 74
e 41 79
e 41 91
e 43 64
e 43 75
e 43 77
e 43 90
e 43 92
e 44 62
e 44 68
e 44 89
e 44 90
e 44 100
e 45 67
e 45 77
e 45 80
e 45 93
e 45 97
e 45 98
e 47 72
e 47 75
e 47 85
e 47 97
e 47 98
e 48 62
e 48 72
e 48 75
e 48 85
e 48 97
e 48 99
e 49 70
e 49 74
e 49 79
e 49 86
e 50 68
e 50 75
e 50 83
e 50 97
e 51 74
e 52 78
e 52 79
e 52 83
e 52 86
e 52 87
e 52 94
e 52 95
e 52 98
e 53 67
e 53 71
e 53 76
e 54 61
e 54 68
e 54 78
e 54 87
e 54 96
e 54 97
e 55 72
e 55 79
e 55 84
e 55 92
e 56 67
e 56 69
e 56 76
e 56 83
e 56 90
e 57 62
e 57 84
e 57 85
e 57 93
e 58 66
e 58 80
e 59 83
e 59 89
e 60 67
e 60 79
e 60 96
e 61 83
e 61 93
e 61 98
e 62 90
e 62 92
e 62 96
e 63 82
e 63 86
e 64 87
e 64 100
e 65 86
e 65 95
e 66 87
e 66 94
e 67 84
e 67 96
e 69 86
e 71 81
e 71 85
e 71 95
e 72 83
e 72 87
e 73 83
e 73 96
e 73 98
e 74 89
e 76 95
e 77 94
e 78 82
e 78 83
e 79 85
e 80 92
