c FILE: balanced_graphs/balanced_140_7_10_5.col
c
c DESCRIPTION: Random balanced graph, 140 nodes,
c              partitions 7
c              edge probability 0.1
c
c G(140,7,0.1) graph
c number of vertices : 140
c max number of edges: 9730
c edge probability   : 0.1
c
c           Graph Stats
c number of vertices  : 140
c nonisolated vertices: 140
c number of edges     : 866
c edge density        : 0.0890
c max degree          : 20
c avg degree          : 12.37
c min degree          : 4
c
p col 140 866
e 1 26
e 1 33
e 1 56
e 1 59
e 1 69
e 1 74
e 1 83
e 1 87
e 1 99
e 1 112
e 1 128
e 2 23
e 2 34
e 2 43
e 2 58
e 2 78
e 2 83
e 2 87
e 2 88
e 2 92
e 2 95
e 2 107
e 2 116
e 2 117
e 2 123
e 2 131
e 3 29
e 3 34
e 3 40
e 3 42
e 3 62
e 3 78
e 3 80
e 3 87
e 3 94
e 3 97
e 3 108
e 3 113
e 3 137
e 4 27
e 4 30
e 4 48
e 4 50
e 4 54
e 4 55
e 4 56
e 4 64
e 4 77
e 4 79
e 4 88
e 4 96
e 4 107
e 4 109
e 4 118
e 4 126
e 4 131
e 5 45
e 5 49
e 5 51
e 5 56
e 5 61
e 5 71
e 5 77
e 5 85
e 5 89
e 5 92
e 5 93
e 5 105
e 5 108
e 5 123
e 5 125
e 5 127
e 6 25
e 6 27
e 6 47
e 6 51
e 6 61
e 6 65
e 6 76
e 6 81
e 6 86
e 6 90
e 6 92
e 6 103
e 6 121
e 6 122
e 7 21
e 7 32
e 7 65
e 7 95
e 7 113
e 7 123
e 7 129
e 8 36
e 8 40
e 8 44
e 8 46
e 8 55
e 8 60
e 8 61
e 8 67
e 8 92
e 8 96
e 8 101
e 8 108
e 8 109
e 8 121
e 8 125
e 8 140
e 9 32
e 9 34
e 9 38
e 9 51
e 9 53
e 9 56
e 9 60
e 9 69
e 9 93
e 9 117
e 9 124
e 9 132
e 9 135
e 9 140
e 10 30
e 10 68
e 10 76
e 10 83
e 10 99
e 10 113
e 10 116
e 10 118
e 10 120
e 10 126
e 10 132
e 11 23
e 11 37
e 11 40
e 11 78
e 11 95
e 11 98
e 11 113
e 11 139
e 12 26
e 12 39
e 12 42
e 12 52
e 12 61
e 12 100
e 12 101
e 12 104
e 12 109
e 12 112
e 12 115
e 12 128
e 13 26
e 13 27
e 13 78
e 13 107
e 13 115
e 13 121
e 13 128
e 14 33
e 14 36
e 14 42
e 14 50
e 14 51
e 14 60
e 14 66
e 14 83
e 14 89
e 14 91
e 14 105
e 14 138
e 15 34
e 15 40
e 15 47
e 15 50
e 15 53
e 15 81
e 15 88
e 15 106
e 15 107
e 15 124
e 15 131
e 15 136
e 16 31
e 16 41
e 16 56
e 16 90
e 16 107
e 16 124
e 16 134
e 17 36
e 17 48
e 17 50
e 17 51
e 17 52
e 17 60
e 17 62
e 17 76
e 17 80
e 17 97
e 17 110
e 17 123
e 17 124
e 17 139
e 18 21
e 18 33
e 18 36
e 18 43
e 18 45
e 18 51
e 18 55
e 18 67
e 18 69
e 18 79
e 18 97
e 18 99
e 18 125
e 18 131
e 19 22
e 19 32
e 19 54
e 19 81
e 19 87
e 19 93
e 19 104
e 19 108
e 19 111
e 19 115
e 19 118
e 19 125
e 19 137
e 20 22
e 20 39
e 20 57
e 20 64
e 20 67
e 20 86
e 20 88
e 20 92
e 20 109
e 20 121
e 20 125
e 21 73
e 21 114
e 21 124
e 21 126
e 21 128
e 22 45
e 22 48
e 22 84
e 22 104
e 22 106
e 22 112
e 22 131
e 22 133
e 23 41
e 23 42
e 23 81
e 23 91
e 23 123
e 23 133
e 24 44
e 24 50
e 24 54
e 24 64
e 24 73
e 24 84
e 24 86
e 24 88
e 24 90
e 24 97
e 24 103
e 24 112
e 24 113
e 24 125
e 24 130
e 24 140
e 25 44
e 25 46
e 25 55
e 25 79
e 25 81
e 25 101
e 25 104
e 25 106
e 25 114
e 25 121
e 25 132
e 25 139
e 26 59
e 26 74
e 26 75
e 26 79
e 26 96
e 26 101
e 26 114
e 26 115
e 26 123
e 26 136
e 27 45
e 27 51
e 27 57
e 27 77
e 27 90
e 27 93
e 27 115
e 27 117
e 27 127
e 27 130
e 27 138
e 28 72
e 28 75
e 28 78
e 28 79
e 28 81
e 28 85
e 28 86
e 28 95
e 28 102
e 28 112
e 28 127
e 28 133
e 29 41
e 29 42
e 29 44
e 29 55
e 29 61
e 29 91
e 29 94
e 29 112
e 29 113
e 30 63
e 30 71
e 30 72
e 30 83
e 30 84
e 30 113
e 30 123
e 30 127
e 30 138
e 31 41
e 31 47
e 31 60
e 31 94
e 31 105
e 31 123
e 31 127
e 31 138
e 32 45
e 32 46
e 32 52
e 32 70
e 32 80
e 32 93
e 32 95
e 32 115
e 32 127
e 32 131
e 32 138
e 33 44
e 33 55
e 33 57
e 33 61
e 33 63
e 33 80
e 33 88
e 33 95
e 33 100
e 33 120
e 33 122
e 33 137
e 33 139
e 34 80
e 34 87
e 34 91
e 34 97
e 34 113
e 34 118
e 34 133
e 34 134
e 34 139
e 35 78
e 35 82
e 35 86
e 35 97
e 35 103
e 35 130
e 35 132
e 35 135
e 36 48
e 36 49
e 36 51
e 36 52
e 36 59
e 36 71
e 36 107
e 36 130
e 36 137
e 36 139
e 37 66
e 37 69
e 37 74
e 37 86
e 37 88
e 37 95
e 37 106
e 37 108
e 37 116
e 37 137
e 38 45
e 38 55
e 38 58
e 38 64
e 38 87
e 38 96
e 38 123
e 38 133
e 38 134
e 38 139
e 39 50
e 39 55
e 39 65
e 39 76
e 39 77
e 39 82
e 39 88
e 39 89
e 39 91
e 39 102
e 39 111
e 39 133
e 40 50
e 40 67
e 40 79
e 40 83
e 40 84
e 40 99
e 40 105
e 40 119
e 41 69
e 41 79
e 41 108
e 41 111
e 41 127
e 41 135
e 42 76
e 42 78
e 42 79
e 42 83
e 42 89
e 42 91
e 42 98
e 42 118
e 42 120
e 42 130
e 42 139
e 43 62
e 43 65
e 43 70
e 43 89
e 43 115
e 43 120
e 43 134
e 44 77
e 44 99
e 44 109
e 44 114
e 44 131
e 44 136
e 44 138
e 45 81
e 45 89
e 45 128
e 45 131
e 45 139
e 46 67
e 46 76
e 46 81
e 46 89
e 46 90
e 46 91
e 46 98
e 46 111
e 46 114
e 46 126
e 46 133
e 46 138
e 47 73
e 47 82
e 47 90
e 47 96
e 47 119
e 47 124
e 47 128
e 47 130
e 47 135
e 47 139
e 48 66
e 48 74
e 48 77
e 48 79
e 48 92
e 48 97
e 48 100
e 48 117
e 48 125
e 48 135
e 49 61
e 49 108
e 49 118
e 50 63
e 50 85
e 50 88
e 50 112
e 50 113
e 50 116
e 50 117
e 50 119
e 50 123
e 50 128
e 50 131
e 51 69
e 51 72
e 51 73
e 51 83
e 51 87
e 51 92
e 51 98
e 51 102
e 51 104
e 51 109
e 51 115
e 51 126
e 52 73
e 52 98
e 52 104
e 52 106
e 52 127
e 52 136
e 52 139
e 53 63
e 53 76
e 53 79
e 53 81
e 53 86
e 53 89
e 53 90
e 53 96
e 53 111
e 53 123
e 53 127
e 53 130
e 54 81
e 54 87
e 54 90
e 54 133
e 54 134
e 55 62
e 55 74
e 55 98
e 55 122
e 55 123
e 55 128
e 55 132
e 56 61
e 56 71
e 56 75
e 56 77
e 56 78
e 56 79
e 56 86
e 56 91
e 56 92
e 56 108
e 56 118
e 56 120
e 56 138
e 56 139
e 57 67
e 57 78
e 57 82
e 57 91
e 57 97
e 57 103
e 57 107
e 57 112
e 57 124
e 57 127
e 57 131
e 58 74
e 58 93
e 58 95
e 58 120
e 58 127
e 58 128
e 59 66
e 59 67
e 59 74
e 59 78
e 59 91
e 59 93
e 59 100
e 59 122
e 59 124
e 59 130
e 60 73
e 60 90
e 60 95
e 60 107
e 60 121
e 60 126
e 60 130
e 60 134
e 60 139
e 61 83
e 61 107
e 61 115
e 61 121
e 61 124
e 61 128
e 61 130
e 61 137
e 62 89
e 62 91
e 62 97
e 62 102
e 62 103
e 62 106
e 62 111
e 62 122
e 62 135
e 62 138
e 63 101
e 63 106
e 63 112
e 63 113
e 63 118
e 64 81
e 64 117
e 64 118
e 64 126
e 64 131
e 65 107
e 65 110
e 65 111
e 65 121
e 65 122
e 65 124
e 65 127
e 65 129
e 65 135
e 66 89
e 66 91
e 66 98
e 66 101
e 66 110
e 66 119
e 66 135
e 67 81
e 67 82
e 67 83
e 67 93
e 67 103
e 67 106
e 67 116
e 67 121
e 67 130
e 67 135
e 67 140
e 68 91
e 68 94
e 68 103
e 68 113
e 68 121
e 68 122
e 68 127
e 68 130
e 69 98
e 69 99
e 69 109
e 69 112
e 69 135
e 69 140
e 70 96
e 70 97
e 70 101
e 70 102
e 70 106
e 70 109
e 71 89
e 71 133
e 71 136
e 72 83
e 72 101
e 72 109
e 72 119
e 72 122
e 73 88
e 73 98
e 73 104
e 73 109
e 73 120
e 73 128
e 74 93
e 74 102
e 74 114
e 74 123
e 74 124
e 74 135
e 74 138
e 75 95
e 75 97
e 75 125
e 75 128
e 75 139
e 76 81
e 76 99
e 76 104
e 76 107
e 76 131
e 76 136
e 77 88
e 77 91
e 77 102
e 77 111
e 77 114
e 77 125
e 77 129
e 77 131
e 78 85
e 78 90
e 78 100
e 78 113
e 78 118
e 78 122
e 78 133
e 79 89
e 79 113
e 79 126
e 79 135
e 80 83
e 80 90
e 80 99
e 80 105
e 80 125
e 80 130
e 81 101
e 81 108
e 81 113
e 82 108
e 82 112
e 82 134
e 82 136
e 83 101
e 83 123
e 83 129
e 83 130
e 84 105
e 84 111
e 84 118
e 84 126
e 84 132
e 84 134
e 85 107
e 85 113
e 85 124
e 86 105
e 86 115
e 86 118
e 86 132
e 87 103
e 87 109
e 87 112
e 87 117
e 87 120
e 87 121
e 87 133
e 87 134
e 87 136
e 88 104
e 88 114
e 88 133
e 89 117
e 89 125
e 89 137
e 90 101
e 90 115
e 90 131
e 91 105
e 91 112
e 91 129
e 91 133
e 91 134
e 92 104
e 92 115
e 92 116
e 92 121
e 92 129
e 92 132
e 93 115
e 93 130
e 94 105
e 94 120
e 95 106
e 96 101
e 96 120
e 96 123
e 96 130
e 97 123
e 97 125
e 97 139
e 98 126
e 99 107
e 99 120
e 99 121
e 99 123
e 99 129
e 99 134
e 99 139
e 100 101
e 100 113
e 100 116
e 100 126
e 100 136
e 101 140
e 102 123
e 102 132
e 102 137
e 103 137
e 103 140
e 104 127
e 104 128
e 104 131
e 105 122
e 105 124
e 105 130
e 105 137
e 106 129
e 106 140
e 107 121
e 107 122
e 108 123
e 108 127
e 108 132
e 108 136
e 108 137
e 109 123
e 109 135
e 110 132
e 111 121
e 111 122
e 111 135
e 112 132
e 113 124
e 113 133
e 114 126
e 115 133
e 117 121
e 117 128
e 117 130
e 119 126
e 119 136
e 120 124
e 120 127
