c FILE: balanced_graphs/balanced_100_5_25_2.col
c
c DESCRIPTION: Random balanced graph, 100 nodes,
c              partitions 5
c              edge probability 0.25
c
c G(100,5,0.25) graph
c number of vertices : 100
c max number of edges: 4950
c edge probability   : 0.25
c
c           Graph Stats
c number of vertices  : 100
c nonisolated vertices: 100
c number of edges     : 955
c edge density        : 0.1929
c max degree          : 30
c avg degree          : 19.10
c min degree          : 7
c
p col 100 955
e 1 32
e 1 35
e 1 39
e 1 42
e 1 45
e 1 49
e 1 51
e 1 54
e 1 55
e 1 57
e 1 59
e 1 65
e 1 71
e 1 76
e 1 80
e 1 81
e 1 86
e 1 92
e 1 98
e 2 26
e 2 30
e 2 36
e 2 38
e 2 43
e 2 45
e 2 47
e 2 48
e 2 53
e 2 66
e 2 68
e 2 72
e 2 81
e 2 85
e 2 87
e 2 96
e 2 98
e 2 100
e 3 23
e 3 28
e 3 30
e 3 34
e 3 39
e 3 43
e 3 47
e 3 54
e 3 59
e 3 78
e 3 79
e 3 87
e 3 93
e 3 95
e 3 97
e 3 98
e 4 25
e 4 29
e 4 36
e 4 40
e 4 44
e 4 45
e 4 53
e 4 64
e 4 72
e 4 76
e 4 83
e 4 90
e 4 92
e 4 93
e 4 100
e 5 23
e 5 31
e 5 33
e 5 34
e 5 35
e 5 41
e 5 43
e 5 44
e 5 52
e 5 53
e 5 54
e 5 55
e 5 59
e 5 71
e 5 72
e 5 75
e 5 76
e 5 80
e 5 90
e 5 91
e 5 94
e 5 96
e 5 98
e 5 99
e 6 23
e 6 29
e 6 34
e 6 40
e 6 46
e 6 48
e 6 53
e 6 54
e 6 57
e 6 58
e 6 65
e 6 68
e 6 70
e 6 76
e 6 84
e 6 93
e 6 97
e 6 98
e 6 99
e 6 100
e 7 21
e 7 37
e 7 43
e 7 48
e 7 53
e 7 54
e 7 57
e 7 63
e 7 65
e 7 67
e 7 71
e 7 75
e 7 88
e 7 90
e 7 98
e 7 99
e 7 100
e 8 22
e 8 26
e 8 28
e 8 39
e 8 47
e 8 50
e 8 52
e 8 55
e 8 62
e 8 63
e 8 64
e 8 67
e 8 69
e 8 71
e 8 75
e 8 79
e 8 80
e 8 83
e 8 89
e 8 95
e 8 96
e 9 22
e 9 23
e 9 26
e 9 27
e 9 31
e 9 34
e 9 36
e 9 39
e 9 42
e 9 44
e 9 51
e 9 56
e 9 59
e 9 66
e 9 69
e 9 77
e 9 81
e 9 87
e 9 100
e 10 23
e 10 24
e 10 31
e 10 34
e 10 37
e 10 38
e 10 40
e 10 45
e 10 47
e 10 48
e 10 51
e 10 52
e 10 65
e 10 72
e 10 88
e 11 26
e 11 27
e 11 41
e 11 43
e 11 44
e 11 45
e 11 48
e 11 49
e 11 51
e 11 54
e 11 55
e 11 59
e 11 61
e 11 69
e 11 70
e 11 71
e 11 73
e 11 77
e 11 78
e 11 79
e 11 90
e 11 92
e 11 95
e 11 96
e 11 97
e 11 98
e 12 24
e 12 42
e 12 53
e 12 58
e 12 78
e 12 89
e 12 92
e 13 27
e 13 30
e 13 31
e 13 33
e 13 34
e 13 36
e 13 39
e 13 43
e 13 44
e 13 46
e 13 49
e 13 51
e 13 55
e 13 59
e 13 61
e 13 64
e 13 65
e 13 74
e 13 82
e 13 85
e 13 87
e 13 88
e 13 96
e 13 98
e 14 24
e 14 33
e 14 37
e 14 40
e 14 41
e 14 53
e 14 57
e 14 61
e 14 67
e 14 75
e 14 82
e 14 85
e 15 28
e 15 31
e 15 32
e 15 34
e 15 39
e 15 43
e 15 48
e 15 49
e 15 51
e 15 52
e 15 56
e 15 57
e 15 64
e 15 65
e 15 67
e 15 77
e 15 78
e 15 88
e 15 91
e 15 92
e 15 96
e 16 21
e 16 27
e 16 33
e 16 35
e 16 36
e 16 42
e 16 44
e 16 46
e 16 47
e 16 55
e 16 59
e 16 63
e 16 68
e 16 69
e 16 76
e 16 78
e 16 80
e 16 81
e 16 83
e 16 89
e 16 91
e 16 92
e 16 99
e 17 22
e 17 26
e 17 27
e 17 31
e 17 35
e 17 37
e 17 40
e 17 41
e 17 43
e 17 48
e 17 54
e 17 56
e 17 82
e 17 84
e 17 88
e 17 93
e 17 94
e 17 97
e 18 21
e 18 24
e 18 31
e 18 34
e 18 35
e 18 41
e 18 48
e 18 50
e 18 52
e 18 55
e 18 58
e 18 59
e 18 61
e 18 63
e 18 67
e 18 68
e 18 77
e 18 79
e 18 89
e 18 91
e 18 96
e 18 97
e 19 25
e 19 26
e 19 30
e 19 31
e 19 35
e 19 44
e 19 51
e 19 52
e 19 53
e 19 54
e 19 55
e 19 56
e 19 58
e 19 64
e 19 65
e 19 72
e 19 76
e 19 83
e 19 84
e 19 88
e 19 93
e 19 96
e 19 97
e 19 98
e 20 22
e 20 23
e 20 26
e 20 31
e 20 34
e 20 36
e 20 39
e 20 43
e 20 47
e 20 55
e 20 70
e 20 78
e 20 80
e 20 82
e 20 88
e 20 96
e 20 97
e 21 43
e 21 46
e 21 49
e 21 52
e 21 61
e 21 69
e 21 78
e 21 79
e 21 86
e 21 90
e 21 91
e 21 92
e 21 95
e 21 100
e 22 43
e 22 46
e 22 47
e 22 54
e 22 56
e 22 60
e 22 64
e 22 67
e 22 72
e 22 74
e 22 78
e 22 82
e 22 87
e 22 88
e 22 93
e 22 96
e 23 43
e 23 45
e 23 54
e 23 58
e 23 61
e 23 65
e 23 68
e 23 69
e 23 74
e 23 75
e 23 79
e 23 81
e 23 82
e 23 85
e 23 87
e 23 88
e 23 97
e 23 100
e 24 45
e 24 47
e 24 53
e 24 56
e 24 64
e 24 69
e 24 72
e 24 73
e 24 76
e 24 79
e 24 89
e 24 93
e 24 96
e 24 100
e 25 51
e 25 54
e 25 56
e 25 58
e 25 67
e 25 69
e 25 70
e 25 71
e 25 72
e 25 76
e 25 78
e 25 79
e 25 80
e 25 83
e 25 89
e 25 90
e 26 45
e 26 47
e 26 48
e 26 51
e 26 56
e 26 57
e 26 71
e 26 84
e 26 89
e 26 90
e 26 92
e 26 95
e 26 96
e 26 97
e 27 41
e 27 49
e 27 52
e 27 54
e 27 55
e 27 73
e 27 81
e 27 93
e 27 96
e 27 97
e 27 99
e 28 43
e 28 46
e 28 49
e 28 53
e 28 60
e 28 73
e 28 75
e 28 77
e 28 89
e 29 44
e 29 54
e 29 65
e 29 67
e 29 69
e 29 81
e 29 82
e 29 90
e 29 93
e 29 100
e 30 41
e 30 47
e 30 48
e 30 49
e 30 60
e 30 64
e 30 66
e 30 67
e 30 78
e 30 88
e 30 93
e 30 98
e 31 51
e 31 56
e 31 65
e 31 70
e 31 74
e 31 86
e 31 89
e 31 95
e 31 96
e 32 41
e 32 44
e 32 53
e 32 57
e 32 63
e 32 64
e 32 68
e 32 73
e 32 81
e 32 87
e 32 91
e 32 95
e 33 41
e 33 44
e 33 46
e 33 48
e 33 52
e 33 55
e 33 58
e 33 62
e 33 63
e 33 72
e 33 75
e 33 77
e 33 79
e 33 86
e 33 87
e 33 89
e 33 94
e 33 96
e 33 97
e 33 99
e 34 49
e 34 50
e 34 51
e 34 60
e 34 61
e 34 67
e 34 71
e 34 74
e 34 79
e 34 90
e 34 96
e 34 100
e 35 43
e 35 49
e 35 51
e 35 52
e 35 61
e 35 62
e 35 64
e 35 65
e 35 73
e 35 76
e 35 83
e 35 86
e 35 87
e 35 88
e 35 89
e 35 93
e 35 95
e 35 96
e 35 97
e 35 99
e 36 46
e 36 54
e 36 55
e 36 59
e 36 60
e 36 62
e 36 63
e 36 66
e 36 68
e 36 69
e 36 71
e 36 73
e 36 75
e 36 78
e 36 82
e 36 86
e 36 89
e 36 95
e 37 43
e 37 50
e 37 53
e 37 57
e 37 58
e 37 63
e 37 66
e 37 72
e 37 73
e 37 76
e 37 86
e 37 92
e 37 96
e 38 44
e 38 45
e 38 47
e 38 57
e 38 63
e 38 80
e 38 85
e 38 86
e 38 89
e 38 90
e 39 43
e 39 45
e 39 48
e 39 49
e 39 63
e 39 67
e 39 70
e 39 72
e 39 79
e 39 81
e 39 87
e 39 88
e 39 93
e 39 94
e 39 97
e 39 99
e 40 43
e 40 47
e 40 54
e 40 56
e 40 57
e 40 61
e 40 64
e 40 73
e 40 75
e 40 77
e 40 80
e 40 86
e 40 87
e 40 94
e 40 95
e 40 96
e 40 98
e 41 62
e 41 63
e 41 64
e 41 74
e 41 85
e 41 94
e 41 97
e 42 62
e 42 63
e 42 69
e 42 70
e 42 72
e 42 73
e 42 77
e 42 79
e 42 82
e 42 83
e 42 91
e 42 96
e 42 97
e 42 99
e 43 70
e 43 75
e 43 77
e 43 82
e 43 86
e 43 88
e 43 90
e 43 92
e 43 94
e 43 96
e 43 97
e 44 61
e 44 76
e 44 77
e 44 78
e 44 89
e 44 92
e 44 96
e 45 61
e 45 70
e 45 71
e 45 72
e 45 84
e 45 92
e 46 67
e 46 68
e 46 74
e 46 75
e 46 79
e 46 81
e 46 91
e 46 92
e 46 93
e 46 98
e 47 61
e 47 64
e 47 71
e 47 79
e 47 81
e 47 84
e 47 86
e 47 90
e 47 95
e 47 97
e 48 62
e 48 69
e 48 71
e 48 74
e 48 76
e 48 78
e 48 80
e 48 86
e 48 89
e 48 90
e 49 62
e 49 64
e 49 66
e 49 71
e 49 75
e 49 78
e 49 81
e 49 85
e 49 89
e 49 90
e 49 98
e 50 64
e 50 72
e 50 73
e 50 76
e 50 79
e 50 80
e 50 82
e 50 84
e 50 88
e 50 92
e 50 93
e 50 95
e 50 97
e 50 99
e 51 61
e 51 64
e 51 66
e 51 67
e 51 72
e 51 75
e 51 78
e 51 80
e 51 87
e 51 90
e 51 91
e 51 97
e 52 63
e 52 65
e 52 66
e 52 67
e 52 75
e 52 82
e 52 84
e 52 85
e 52 86
e 52 93
e 52 97
e 52 98
e 53 61
e 53 65
e 53 66
e 53 68
e 53 70
e 53 71
e 53 72
e 53 91
e 53 92
e 53 94
e 53 100
e 54 62
e 54 66
e 54 67
e 54 70
e 54 76
e 54 79
e 54 85
e 54 87
e 54 95
e 54 98
e 54 99
e 54 100
e 55 72
e 55 76
e 55 77
e 55 86
e 55 87
e 55 88
e 55 93
e 55 94
e 55 99
e 56 62
e 56 71
e 56 78
e 56 80
e 56 82
e 56 86
e 56 91
e 56 92
e 56 95
e 57 63
e 57 69
e 57 70
e 57 82
e 57 89
e 57 91
e 57 92
e 57 94
e 57 99
e 58 62
e 58 69
e 58 72
e 58 84
e 58 89
e 58 95
e 58 96
e 58 97
e 59 63
e 59 67
e 59 68
e 59 69
e 59 70
e 59 83
e 59 87
e 59 91
e 59 94
e 59 98
e 60 62
e 60 64
e 60 68
e 60 72
e 60 73
e 60 75
e 60 85
e 60 93
e 60 98
e 61 81
e 61 83
e 61 87
e 61 92
e 61 97
e 61 99
e 61 100
e 62 82
e 62 98
e 63 81
e 63 88
e 63 89
e 63 93
e 63 97
e 64 84
e 64 85
e 64 97
e 65 81
e 65 83
e 65 84
e 65 89
e 65 92
e 65 97
e 65 99
e 66 81
e 66 83
e 66 99
e 67 84
e 67 91
e 67 93
e 67 100
e 68 82
e 68 92
e 68 94
e 68 98
e 69 90
e 69 91
e 69 92
e 69 93
e 70 82
e 70 84
e 70 90
e 70 95
e 70 96
e 70 97
e 70 100
e 71 81
e 71 83
e 71 96
e 71 99
e 72 89
e 72 90
e 72 95
e 72 97
e 72 99
e 73 81
e 73 90
e 73 91
e 73 97
e 73 98
e 74 83
e 74 84
e 74 86
e 74 92
e 74 94
e 74 95
e 74 98
e 75 83
e 75 90
e 75 96
e 76 82
e 76 87
e 76 88
e 76 91
e 76 96
e 76 97
e 77 81
e 77 82
e 77 91
e 78 83
e 78 88
e 78 93
e 78 96
e 78 98
e 79 91
e 79 94
e 79 96
e 80 81
e 80 84
e 80 87
e 80 93
e 80 94
e 80 96
e 80 98
e 80 100
