c FILE: balanced_graphs/balanced_100_5_10_3.col
c
c DESCRIPTION: Random balanced graph, 100 nodes,
c              partitions 5
c              edge probability 0.1
c
c G(100,5,0.1) graph
c number of vertices : 100
c max number of edges: 4950
c edge probability   : 0.1
c
c           Graph Stats
c number of vertices  : 100
c nonisolated vertices: 100
c number of edges     : 437
c edge density        : 0.0883
c max degree          : 16
c avg degree          : 8.74
c min degree          : 3
c
p col 100 437
e 1 21
e 1 22
e 1 24
e 1 30
e 1 35
e 1 42
e 1 45
e 1 49
e 1 50
e 1 57
e 1 81
e 1 87
e 1 100
e 2 25
e 2 33
e 2 42
e 2 50
e 2 51
e 2 56
e 2 63
e 2 86
e 2 87
e 2 96
e 3 40
e 3 42
e 3 43
e 3 65
e 3 74
e 3 76
e 3 78
e 3 88
e 3 100
e 4 39
e 4 40
e 4 46
e 4 47
e 4 52
e 4 53
e 4 72
e 4 77
e 4 78
e 4 89
e 4 94
e 5 27
e 5 35
e 5 55
e 5 57
e 5 86
e 6 22
e 6 35
e 6 37
e 6 56
e 6 59
e 6 70
e 6 85
e 6 97
e 6 98
e 7 23
e 7 24
e 7 27
e 7 30
e 7 48
e 7 53
e 7 56
e 7 58
e 7 63
e 7 70
e 7 77
e 7 86
e 7 94
e 8 21
e 8 42
e 8 55
e 8 57
e 8 63
e 8 76
e 8 94
e 8 97
e 9 29
e 9 39
e 9 40
e 9 44
e 9 58
e 9 62
e 9 65
e 9 71
e 9 75
e 9 83
e 9 86
e 9 92
e 10 25
e 10 34
e 10 43
e 10 49
e 10 64
e 10 78
e 10 82
e 10 87
e 10 96
e 11 21
e 11 33
e 11 37
e 11 38
e 11 42
e 11 44
e 11 45
e 11 49
e 11 51
e 11 56
e 11 64
e 11 66
e 11 69
e 11 80
e 11 82
e 11 83
e 12 39
e 12 41
e 12 50
e 12 51
e 12 52
e 12 62
e 12 75
e 12 82
e 12 86
e 12 90
e 12 91
e 12 97
e 13 23
e 13 24
e 13 36
e 13 49
e 13 50
e 13 51
e 13 57
e 13 58
e 13 89
e 14 27
e 14 44
e 14 49
e 14 50
e 14 52
e 14 57
e 14 73
e 14 87
e 14 93
e 15 27
e 15 73
e 15 75
e 15 80
e 15 93
e 16 29
e 16 39
e 16 43
e 16 44
e 16 45
e 16 55
e 16 81
e 16 90
e 16 93
e 16 98
e 17 29
e 17 34
e 17 36
e 17 64
e 17 81
e 18 35
e 18 48
e 18 54
e 18 57
e 18 66
e 18 75
e 18 77
e 18 89
e 19 29
e 19 32
e 19 56
e 19 66
e 19 77
e 19 85
e 19 88
e 20 26
e 20 34
e 20 39
e 20 40
e 20 48
e 20 56
e 20 58
e 20 62
e 20 69
e 20 75
e 21 41
e 21 45
e 21 53
e 21 71
e 21 73
e 21 82
e 21 83
e 21 88
e 22 56
e 22 73
e 22 76
e 22 79
e 22 84
e 22 90
e 23 46
e 23 62
e 23 92
e 23 97
e 24 53
e 24 55
e 24 69
e 24 98
e 24 99
e 25 41
e 25 48
e 25 60
e 25 66
e 25 76
e 26 62
e 26 64
e 26 68
e 26 77
e 26 81
e 26 86
e 27 41
e 27 42
e 27 50
e 27 62
e 27 65
e 27 68
e 27 70
e 27 78
e 27 81
e 27 83
e 28 49
e 28 50
e 28 52
e 28 53
e 28 63
e 28 66
e 28 87
e 28 93
e 28 96
e 28 100
e 29 45
e 29 57
e 29 67
e 29 84
e 29 88
e 29 98
e 29 99
e 30 42
e 30 49
e 30 57
e 30 60
e 30 61
e 30 65
e 30 78
e 30 94
e 31 42
e 31 57
e 31 72
e 31 77
e 31 95
e 32 43
e 32 56
e 32 67
e 32 89
e 32 98
e 33 61
e 33 67
e 33 74
e 33 75
e 33 80
e 33 87
e 33 96
e 34 45
e 34 46
e 34 60
e 34 72
e 34 74
e 34 81
e 34 84
e 34 85
e 34 88
e 34 89
e 34 94
e 35 66
e 36 48
e 36 57
e 36 60
e 36 61
e 36 71
e 36 76
e 36 86
e 36 94
e 37 78
e 37 80
e 37 82
e 37 85
e 37 100
e 38 45
e 38 86
e 38 93
e 38 97
e 39 61
e 39 74
e 39 75
e 39 93
e 40 43
e 40 66
e 40 86
e 40 89
e 40 92
e 40 97
e 41 66
e 41 69
e 41 89
e 42 62
e 42 67
e 42 85
e 42 92
e 42 94
e 42 95
e 43 64
e 43 69
e 43 71
e 43 77
e 44 67
e 44 72
e 44 74
e 44 95
e 45 64
e 45 66
e 45 81
e 45 88
e 45 90
e 45 96
e 46 73
e 46 74
e 46 76
e 46 81
e 46 84
e 47 62
e 47 66
e 47 73
e 47 83
e 47 89
e 47 90
e 47 100
e 48 71
e 48 72
e 48 73
e 48 77
e 48 79
e 49 63
e 49 84
e 49 85
e 49 87
e 49 88
e 50 62
e 50 65
e 50 99
e 51 63
e 51 68
e 51 70
e 51 76
e 51 84
e 51 92
e 52 63
e 52 93
e 52 97
e 52 98
e 54 69
e 54 79
e 54 81
e 54 94
e 55 75
e 55 91
e 57 70
e 57 89
e 57 90
e 57 94
e 57 99
e 58 63
e 58 81
e 58 89
e 58 91
e 59 66
e 59 90
e 60 65
e 60 72
e 60 74
e 60 84
e 60 88
e 61 81
e 61 85
e 61 97
e 62 81
e 62 92
e 63 82
e 64 88
e 64 89
e 64 100
e 66 86
e 66 93
e 66 97
e 66 100
e 67 82
e 67 88
e 67 91
e 67 98
e 68 86
e 70 84
e 70 88
e 71 88
e 71 92
e 71 93
e 71 96
e 72 95
e 72 100
e 73 85
e 74 84
e 74 87
e 75 86
e 75 95
e 76 87
e 76 98
e 77 82
e 77 93
e 78 84
e 78 87
e 78 96
e 78 98
e 79 86
e 80 91
e 80 94
