c FILE: balanced_graphs/balanced_140_7_50_4.col
c
c DESCRIPTION: Random balanced graph, 140 nodes,
c              partitions 7
c              edge probability 0.5
c
c G(140,7,0.5) graph
c number of vertices : 140
c max number of edges: 9730
c edge probability   : 0.5
c
c           Graph Stats
c number of vertices  : 140
c nonisolated vertices: 140
c number of edges     : 4125
c edge density        : 0.4239
c max degree          : 78
c avg degree          : 58.93
c min degree          : 45
c
p col 140 4125
e 1 23
e 1 25
e 1 28
e 1 29
e 1 31
e 1 32
e 1 33
e 1 34
e 1 35
e 1 37
e 1 38
e 1 40
e 1 42
e 1 44
e 1 45
e 1 46
e 1 47
e 1 51
e 1 52
e 1 54
e 1 56
e 1 57
e 1 58
e 1 59
e 1 60
e 1 64
e 1 66
e 1 69
e 1 70
e 1 73
e 1 75
e 1 77
e 1 79
e 1 80
e 1 81
e 1 82
e 1 83
e 1 84
e 1 86
e 1 87
e 1 89
e 1 93
e 1 94
e 1 99
e 1 100
e 1 101
e 1 105
e 1 106
e 1 107
e 1 112
e 1 113
e 1 114
e 1 116
e 1 117
e 1 118
e 1 119
e 1 120
e 1 122
e 1 124
e 1 127
e 1 128
e 1 129
e 1 130
e 1 131
e 1 132
e 1 136
e 1 137
e 1 139
e 2 28
e 2 29
e 2 31
e 2 32
e 2 33
e 2 34
e 2 37
e 2 39
e 2 40
e 2 41
e 2 43
e 2 44
e 2 45
e 2 46
e 2 50
e 2 52
e 2 53
e 2 57
e 2 58
e 2 60
e 2 61
e 2 63
e 2 64
e 2 67
e 2 68
e 2 69
e 2 70
e 2 72
e 2 74
e 2 78
e 2 79
e 2 80
e 2 83
e 2 87
e 2 88
e 2 89
e 2 90
e 2 91
e 2 93
e 2 94
e 2 96
e 2 98
e 2 99
e 2 101
e 2 102
e 2 104
e 2 105
e 2 107
e 2 108
e 2 109
e 2 112
e 2 117
e 2 120
e 2 121
e 2 122
e 2 125
e 2 126
e 2 129
e 2 131
e 2 134
e 2 136
e 2 137
e 2 138
e 2 139
e 3 23
e 3 24
e 3 25
e 3 27
e 3 29
e 3 31
e 3 34
e 3 36
e 3 38
e 3 39
e 3 40
e 3 49
e 3 50
e 3 51
e 3 52
e 3 55
e 3 57
e 3 58
e 3 59
e 3 60
e 3 62
e 3 64
e 3 73
e 3 74
e 3 80
e 3 82
e 3 83
e 3 87
e 3 90
e 3 92
e 3 94
e 3 95
e 3 96
e 3 97
e 3 99
e 3 103
e 3 104
e 3 105
e 3 106
e 3 108
e 3 111
e 3 115
e 3 117
e 3 121
e 3 122
e 3 123
e 3 125
e 3 126
e 3 128
e 3 129
e 3 133
e 3 134
e 3 135
e 4 21
e 4 24
e 4 28
e 4 29
e 4 31
e 4 33
e 4 34
e 4 35
e 4 36
e 4 39
e 4 43
e 4 45
e 4 46
e 4 47
e 4 48
e 4 49
e 4 51
e 4 52
e 4 53
e 4 55
e 4 56
e 4 59
e 4 64
e 4 67
e 4 73
e 4 74
e 4 75
e 4 76
e 4 77
e 4 78
e 4 79
e 4 81
e 4 83
e 4 85
e 4 87
e 4 89
e 4 90
e 4 91
e 4 93
e 4 95
e 4 99
e 4 100
e 4 101
e 4 102
e 4 104
e 4 106
e 4 108
e 4 109
e 4 112
e 4 114
e 4 117
e 4 119
e 4 122
e 4 123
e 4 126
e 4 127
e 4 128
e 4 129
e 4 134
e 4 136
e 4 137
e 4 138
e 4 139
e 5 23
e 5 24
e 5 25
e 5 27
e 5 28
e 5 29
e 5 31
e 5 35
e 5 37
e 5 39
e 5 40
e 5 42
e 5 44
e 5 47
e 5 48
e 5 53
e 5 57
e 5 63
e 5 65
e 5 69
e 5 72
e 5 74
e 5 75
e 5 77
e 5 79
e 5 81
e 5 82
e 5 83
e 5 84
e 5 85
e 5 86
e 5 87
e 5 89
e 5 90
e 5 91
e 5 94
e 5 96
e 5 97
e 5 98
e 5 99
e 5 100
e 5 102
e 5 107
e 5 109
e 5 115
e 5 116
e 5 121
e 5 122
e 5 124
e 5 128
e 5 129
e 5 132
e 5 138
e 5 139
e 6 23
e 6 24
e 6 31
e 6 33
e 6 34
e 6 35
e 6 37
e 6 41
e 6 42
e 6 46
e 6 47
e 6 48
e 6 50
e 6 52
e 6 53
e 6 54
e 6 55
e 6 59
e 6 63
e 6 65
e 6 72
e 6 73
e 6 74
e 6 76
e 6 77
e 6 79
e 6 81
e 6 84
e 6 87
e 6 90
e 6 91
e 6 92
e 6 93
e 6 94
e 6 103
e 6 105
e 6 108
e 6 109
e 6 111
e 6 114
e 6 116
e 6 118
e 6 120
e 6 123
e 6 124
e 6 127
e 6 131
e 6 133
e 6 134
e 6 136
e 6 137
e 6 139
e 7 23
e 7 24
e 7 25
e 7 26
e 7 27
e 7 32
e 7 33
e 7 34
e 7 35
e 7 36
e 7 38
e 7 39
e 7 41
e 7 43
e 7 45
e 7 46
e 7 48
e 7 52
e 7 54
e 7 55
e 7 56
e 7 57
e 7 58
e 7 59
e 7 60
e 7 64
e 7 66
e 7 68
e 7 69
e 7 70
e 7 71
e 7 72
e 7 74
e 7 75
e 7 76
e 7 78
e 7 81
e 7 84
e 7 85
e 7 86
e 7 87
e 7 88
e 7 89
e 7 95
e 7 102
e 7 106
e 7 112
e 7 114
e 7 115
e 7 117
e 7 118
e 7 119
e 7 120
e 7 122
e 7 123
e 7 124
e 7 126
e 7 127
e 7 129
e 7 134
e 7 135
e 7 136
e 7 138
e 8 25
e 8 26
e 8 28
e 8 30
e 8 31
e 8 32
e 8 34
e 8 36
e 8 38
e 8 39
e 8 41
e 8 42
e 8 44
e 8 45
e 8 49
e 8 50
e 8 51
e 8 53
e 8 54
e 8 55
e 8 56
e 8 58
e 8 59
e 8 60
e 8 64
e 8 68
e 8 70
e 8 71
e 8 72
e 8 73
e 8 74
e 8 77
e 8 79
e 8 81
e 8 83
e 8 84
e 8 86
e 8 88
e 8 89
e 8 90
e 8 92
e 8 94
e 8 95
e 8 96
e 8 97
e 8 98
e 8 102
e 8 106
e 8 109
e 8 112
e 8 115
e 8 116
e 8 117
e 8 118
e 8 119
e 8 121
e 8 122
e 8 126
e 8 127
e 8 130
e 8 131
e 8 132
e 8 134
e 8 135
e 8 138
e 8 140
e 9 22
e 9 23
e 9 24
e 9 25
e 9 26
e 9 29
e 9 30
e 9 35
e 9 36
e 9 38
e 9 39
e 9 43
e 9 44
e 9 45
e 9 46
e 9 47
e 9 48
e 9 50
e 9 53
e 9 55
e 9 56
e 9 58
e 9 60
e 9 62
e 9 63
e 9 67
e 9 70
e 9 72
e 9 73
e 9 78
e 9 81
e 9 85
e 9 86
e 9 87
e 9 88
e 9 90
e 9 96
e 9 98
e 9 100
e 9 104
e 9 106
e 9 108
e 9 110
e 9 111
e 9 115
e 9 116
e 9 117
e 9 122
e 9 123
e 9 125
e 9 127
e 9 128
e 9 132
e 9 134
e 9 135
e 9 139
e 9 140
e 10 24
e 10 26
e 10 27
e 10 28
e 10 33
e 10 38
e 10 39
e 10 40
e 10 41
e 10 42
e 10 44
e 10 46
e 10 47
e 10 49
e 10 50
e 10 51
e 10 52
e 10 58
e 10 59
e 10 61
e 10 66
e 10 69
e 10 70
e 10 75
e 10 78
e 10 80
e 10 81
e 10 83
e 10 84
e 10 85
e 10 86
e 10 90
e 10 92
e 10 95
e 10 102
e 10 106
e 10 107
e 10 110
e 10 111
e 10 112
e 10 113
e 10 116
e 10 117
e 10 119
e 10 122
e 10 123
e 10 124
e 10 127
e 10 129
e 10 130
e 10 131
e 10 132
e 10 134
e 10 137
e 10 138
e 10 140
e 11 22
e 11 23
e 11 24
e 11 25
e 11 26
e 11 28
e 11 33
e 11 35
e 11 37
e 11 41
e 11 43
e 11 45
e 11 46
e 11 49
e 11 50
e 11 52
e 11 55
e 11 61
e 11 62
e 11 69
e 11 70
e 11 71
e 11 72
e 11 74
e 11 75
e 11 76
e 11 77
e 11 84
e 11 87
e 11 90
e 11 91
e 11 92
e 11 93
e 11 94
e 11 96
e 11 97
e 11 99
e 11 100
e 11 103
e 11 110
e 11 112
e 11 113
e 11 114
e 11 115
e 11 118
e 11 119
e 11 122
e 11 123
e 11 126
e 11 132
e 11 133
e 11 136
e 11 138
e 12 22
e 12 23
e 12 25
e 12 32
e 12 33
e 12 35
e 12 37
e 12 39
e 12 40
e 12 41
e 12 48
e 12 49
e 12 51
e 12 52
e 12 53
e 12 54
e 12 55
e 12 56
e 12 58
e 12 59
e 12 61
e 12 62
e 12 66
e 12 67
e 12 68
e 12 69
e 12 71
e 12 72
e 12 73
e 12 74
e 12 75
e 12 76
e 12 77
e 12 78
e 12 79
e 12 80
e 12 81
e 12 83
e 12 85
e 12 86
e 12 88
e 12 90
e 12 92
e 12 93
e 12 94
e 12 97
e 12 98
e 12 100
e 12 102
e 12 103
e 12 104
e 12 105
e 12 107
e 12 110
e 12 111
e 12 112
e 12 116
e 12 118
e 12 119
e 12 122
e 12 124
e 12 129
e 12 133
e 12 136
e 12 140
e 13 24
e 13 25
e 13 29
e 13 30
e 13 31
e 13 33
e 13 37
e 13 38
e 13 41
e 13 42
e 13 43
e 13 45
e 13 50
e 13 56
e 13 58
e 13 61
e 13 62
e 13 63
e 13 66
e 13 68
e 13 73
e 13 75
e 13 76
e 13 77
e 13 81
e 13 83
e 13 84
e 13 87
e 13 88
e 13 89
e 13 90
e 13 91
e 13 100
e 13 102
e 13 103
e 13 106
e 13 107
e 13 109
e 13 111
e 13 113
e 13 114
e 13 115
e 13 118
e 13 119
e 13 121
e 13 122
e 13 123
e 13 124
e 13 125
e 13 126
e 13 127
e 13 128
e 13 131
e 13 132
e 13 133
e 13 138
e 13 139
e 13 140
e 14 25
e 14 26
e 14 28
e 14 29
e 14 32
e 14 33
e 14 34
e 14 35
e 14 36
e 14 37
e 14 39
e 14 41
e 14 42
e 14 46
e 14 48
e 14 49
e 14 54
e 14 55
e 14 56
e 14 57
e 14 58
e 14 63
e 14 67
e 14 68
e 14 70
e 14 71
e 14 73
e 14 75
e 14 76
e 14 79
e 14 80
e 14 81
e 14 82
e 14 93
e 14 94
e 14 96
e 14 97
e 14 99
e 14 100
e 14 102
e 14 103
e 14 104
e 14 105
e 14 106
e 14 107
e 14 109
e 14 110
e 14 115
e 14 116
e 14 117
e 14 123
e 14 125
e 14 127
e 14 128
e 14 129
e 14 138
e 14 139
e 14 140
e 15 21
e 15 23
e 15 24
e 15 25
e 15 26
e 15 28
e 15 29
e 15 30
e 15 31
e 15 33
e 15 35
e 15 36
e 15 38
e 15 39
e 15 40
e 15 42
e 15 43
e 15 45
e 15 46
e 15 47
e 15 51
e 15 52
e 15 53
e 15 55
e 15 63
e 15 66
e 15 67
e 15 69
e 15 70
e 15 71
e 15 73
e 15 74
e 15 75
e 15 76
e 15 79
e 15 80
e 15 82
e 15 84
e 15 86
e 15 87
e 15 88
e 15 90
e 15 91
e 15 94
e 15 95
e 15 97
e 15 98
e 15 99
e 15 100
e 15 104
e 15 107
e 15 109
e 15 112
e 15 115
e 15 118
e 15 119
e 15 120
e 15 124
e 15 126
e 15 127
e 15 130
e 15 131
e 15 133
e 15 136
e 15 137
e 15 138
e 15 139
e 16 24
e 16 28
e 16 29
e 16 35
e 16 36
e 16 37
e 16 39
e 16 40
e 16 45
e 16 47
e 16 49
e 16 51
e 16 52
e 16 56
e 16 58
e 16 59
e 16 60
e 16 63
e 16 64
e 16 65
e 16 69
e 16 70
e 16 74
e 16 76
e 16 77
e 16 82
e 16 83
e 16 86
e 16 91
e 16 95
e 16 96
e 16 97
e 16 103
e 16 106
e 16 108
e 16 109
e 16 111
e 16 112
e 16 115
e 16 117
e 16 118
e 16 119
e 16 120
e 16 121
e 16 122
e 16 123
e 16 125
e 16 127
e 16 129
e 16 131
e 16 132
e 16 136
e 16 138
e 16 139
e 17 22
e 17 25
e 17 26
e 17 28
e 17 29
e 17 30
e 17 31
e 17 32
e 17 33
e 17 38
e 17 41
e 17 43
e 17 44
e 17 45
e 17 47
e 17 48
e 17 49
e 17 50
e 17 56
e 17 57
e 17 62
e 17 63
e 17 64
e 17 67
e 17 68
e 17 69
e 17 70
e 17 71
e 17 72
e 17 75
e 17 82
e 17 84
e 17 88
e 17 94
e 17 95
e 17 97
e 17 98
e 17 100
e 17 102
e 17 103
e 17 104
e 17 108
e 17 110
e 17 111
e 17 113
e 17 114
e 17 115
e 17 116
e 17 119
e 17 120
e 17 122
e 17 123
e 17 125
e 17 126
e 17 127
e 17 128
e 17 129
e 17 130
e 17 131
e 17 133
e 17 135
e 17 139
e 18 23
e 18 28
e 18 29
e 18 32
e 18 33
e 18 35
e 18 36
e 18 37
e 18 38
e 18 39
e 18 41
e 18 42
e 18 46
e 18 47
e 18 50
e 18 51
e 18 54
e 18 55
e 18 58
e 18 60
e 18 61
e 18 62
e 18 65
e 18 67
e 18 68
e 18 69
e 18 70
e 18 72
e 18 73
e 18 74
e 18 78
e 18 80
e 18 83
e 18 85
e 18 86
e 18 89
e 18 94
e 18 97
e 18 99
e 18 101
e 18 102
e 18 104
e 18 106
e 18 108
e 18 110
e 18 111
e 18 112
e 18 115
e 18 116
e 18 117
e 18 118
e 18 119
e 18 122
e 18 124
e 18 125
e 18 128
e 18 129
e 18 133
e 18 134
e 18 136
e 18 138
e 18 140
e 19 22
e 19 24
e 19 25
e 19 29
e 19 33
e 19 34
e 19 35
e 19 39
e 19 41
e 19 42
e 19 44
e 19 46
e 19 47
e 19 49
e 19 53
e 19 54
e 19 55
e 19 58
e 19 59
e 19 60
e 19 62
e 19 64
e 19 65
e 19 67
e 19 69
e 19 73
e 19 75
e 19 76
e 19 77
e 19 78
e 19 79
e 19 81
e 19 85
e 19 86
e 19 89
e 19 91
e 19 94
e 19 96
e 19 98
e 19 99
e 19 100
e 19 101
e 19 103
e 19 107
e 19 108
e 19 109
e 19 110
e 19 112
e 19 113
e 19 114
e 19 115
e 19 116
e 19 118
e 19 120
e 19 121
e 19 122
e 19 125
e 19 127
e 19 130
e 19 132
e 19 133
e 19 134
e 19 136
e 19 138
e 19 139
e 19 140
e 20 21
e 20 22
e 20 23
e 20 24
e 20 25
e 20 26
e 20 29
e 20 31
e 20 33
e 20 34
e 20 35
e 20 36
e 20 37
e 20 39
e 20 40
e 20 41
e 20 42
e 20 45
e 20 46
e 20 48
e 20 49
e 20 50
e 20 52
e 20 53
e 20 55
e 20 56
e 20 58
e 20 59
e 20 67
e 20 68
e 20 71
e 20 72
e 20 73
e 20 76
e 20 80
e 20 82
e 20 84
e 20 87
e 20 88
e 20 91
e 20 92
e 20 93
e 20 95
e 20 97
e 20 99
e 20 100
e 20 102
e 20 104
e 20 105
e 20 108
e 20 112
e 20 113
e 20 115
e 20 116
e 20 118
e 20 122
e 20 123
e 20 124
e 20 126
e 20 130
e 20 131
e 20 132
e 20 133
e 20 134
e 20 135
e 20 136
e 21 43
e 21 45
e 21 46
e 21 48
e 21 49
e 21 52
e 21 56
e 21 59
e 21 60
e 21 64
e 21 67
e 21 68
e 21 70
e 21 74
e 21 75
e 21 77
e 21 78
e 21 79
e 21 80
e 21 83
e 21 85
e 21 87
e 21 88
e 21 92
e 21 94
e 21 95
e 21 96
e 21 98
e 21 100
e 21 101
e 21 102
e 21 103
e 21 104
e 21 106
e 21 107
e 21 108
e 21 110
e 21 111
e 21 113
e 21 114
e 21 115
e 21 116
e 21 117
e 21 119
e 21 121
e 21 122
e 21 124
e 21 127
e 21 128
e 21 129
e 21 133
e 21 134
e 21 135
e 21 136
e 21 138
e 22 43
e 22 44
e 22 47
e 22 48
e 22 51
e 22 55
e 22 56
e 22 57
e 22 59
e 22 61
e 22 63
e 22 68
e 22 69
e 22 71
e 22 72
e 22 73
e 22 78
e 22 80
e 22 81
e 22 83
e 22 84
e 22 86
e 22 87
e 22 91
e 22 94
e 22 95
e 22 96
e 22 97
e 22 98
e 22 99
e 22 100
e 22 101
e 22 102
e 22 103
e 22 104
e 22 107
e 22 109
e 22 111
e 22 113
e 22 116
e 22 117
e 22 119
e 22 121
e 22 123
e 22 124
e 22 128
e 22 130
e 22 133
e 22 137
e 23 43
e 23 44
e 23 47
e 23 48
e 23 51
e 23 54
e 23 58
e 23 60
e 23 62
e 23 65
e 23 67
e 23 69
e 23 72
e 23 73
e 23 76
e 23 78
e 23 80
e 23 81
e 23 82
e 23 84
e 23 85
e 23 86
e 23 88
e 23 91
e 23 94
e 23 97
e 23 104
e 23 106
e 23 107
e 23 108
e 23 110
e 23 114
e 23 116
e 23 118
e 23 121
e 23 122
e 23 126
e 23 127
e 23 131
e 23 135
e 23 136
e 23 137
e 23 138
e 23 140
e 24 41
e 24 42
e 24 44
e 24 46
e 24 51
e 24 55
e 24 60
e 24 61
e 24 66
e 24 70
e 24 71
e 24 72
e 24 73
e 24 75
e 24 80
e 24 82
e 24 83
e 24 84
e 24 85
e 24 86
e 24 87
e 24 90
e 24 91
e 24 92
e 24 96
e 24 97
e 24 98
e 24 100
e 24 104
e 24 107
e 24 109
e 24 111
e 24 122
e 24 123
e 24 125
e 24 126
e 24 128
e 24 131
e 24 133
e 24 137
e 24 138
e 24 140
e 25 47
e 25 49
e 25 54
e 25 55
e 25 56
e 25 57
e 25 60
e 25 62
e 25 64
e 25 65
e 25 66
e 25 76
e 25 77
e 25 78
e 25 80
e 25 81
e 25 82
e 25 83
e 25 86
e 25 87
e 25 88
e 25 90
e 25 91
e 25 92
e 25 93
e 25 100
e 25 104
e 25 107
e 25 109
e 25 111
e 25 112
e 25 113
e 25 116
e 25 117
e 25 118
e 25 119
e 25 120
e 25 121
e 25 122
e 25 123
e 25 124
e 25 129
e 25 133
e 25 139
e 25 140
e 26 41
e 26 42
e 26 43
e 26 44
e 26 46
e 26 48
e 26 50
e 26 51
e 26 52
e 26 54
e 26 55
e 26 57
e 26 59
e 26 62
e 26 63
e 26 64
e 26 70
e 26 71
e 26 73
e 26 74
e 26 75
e 26 77
e 26 78
e 26 79
e 26 82
e 26 87
e 26 89
e 26 90
e 26 94
e 26 97
e 26 98
e 26 101
e 26 102
e 26 103
e 26 104
e 26 105
e 26 106
e 26 108
e 26 109
e 26 110
e 26 111
e 26 115
e 26 116
e 26 118
e 26 119
e 26 120
e 26 123
e 26 124
e 26 125
e 26 126
e 26 127
e 26 128
e 26 129
e 26 131
e 26 133
e 26 136
e 26 137
e 26 139
e 26 140
e 27 43
e 27 44
e 27 45
e 27 48
e 27 50
e 27 51
e 27 54
e 27 55
e 27 56
e 27 57
e 27 60
e 27 61
e 27 63
e 27 64
e 27 70
e 27 71
e 27 73
e 27 77
e 27 78
e 27 80
e 27 81
e 27 82
e 27 84
e 27 89
e 27 94
e 27 95
e 27 101
e 27 102
e 27 103
e 27 105
e 27 107
e 27 108
e 27 110
e 27 111
e 27 118
e 27 119
e 27 123
e 27 126
e 27 127
e 27 128
e 27 134
e 27 135
e 27 136
e 27 139
e 27 140
e 28 42
e 28 44
e 28 45
e 28 46
e 28 47
e 28 51
e 28 52
e 28 53
e 28 55
e 28 60
e 28 61
e 28 62
e 28 63
e 28 64
e 28 65
e 28 66
e 28 67
e 28 70
e 28 71
e 28 73
e 28 76
e 28 79
e 28 80
e 28 82
e 28 88
e 28 90
e 28 91
e 28 94
e 28 96
e 28 98
e 28 99
e 28 100
e 28 102
e 28 104
e 28 107
e 28 108
e 28 109
e 28 112
e 28 115
e 28 116
e 28 117
e 28 118
e 28 119
e 28 120
e 28 123
e 28 130
e 28 133
e 28 135
e 28 137
e 28 139
e 28 140
e 29 45
e 29 50
e 29 51
e 29 52
e 29 54
e 29 57
e 29 58
e 29 59
e 29 60
e 29 63
e 29 64
e 29 66
e 29 67
e 29 71
e 29 72
e 29 73
e 29 76
e 29 77
e 29 80
e 29 82
e 29 85
e 29 87
e 29 88
e 29 89
e 29 90
e 29 93
e 29 95
e 29 100
e 29 102
e 29 104
e 29 108
e 29 110
e 29 113
e 29 114
e 29 116
e 29 117
e 29 122
e 29 128
e 29 130
e 29 132
e 29 133
e 29 135
e 29 136
e 29 139
e 30 41
e 30 43
e 30 46
e 30 48
e 30 49
e 30 52
e 30 53
e 30 56
e 30 61
e 30 63
e 30 66
e 30 69
e 30 70
e 30 74
e 30 75
e 30 76
e 30 79
e 30 83
e 30 85
e 30 86
e 30 87
e 30 89
e 30 91
e 30 92
e 30 93
e 30 94
e 30 97
e 30 100
e 30 101
e 30 102
e 30 103
e 30 104
e 30 105
e 30 110
e 30 112
e 30 113
e 30 115
e 30 117
e 30 119
e 30 121
e 30 123
e 30 124
e 30 125
e 30 127
e 30 128
e 30 129
e 30 131
e 30 132
e 30 134
e 30 136
e 30 137
e 30 139
e 31 41
e 31 42
e 31 44
e 31 45
e 31 46
e 31 47
e 31 48
e 31 50
e 31 51
e 31 55
e 31 63
e 31 64
e 31 65
e 31 67
e 31 68
e 31 70
e 31 72
e 31 74
e 31 77
e 31 91
e 31 94
e 31 96
e 31 97
e 31 98
e 31 100
e 31 102
e 31 103
e 31 105
e 31 107
e 31 108
e 31 111
e 31 112
e 31 113
e 31 114
e 31 115
e 31 117
e 31 121
e 31 122
e 31 123
e 31 127
e 31 128
e 31 129
e 31 130
e 31 131
e 31 132
e 31 135
e 31 137
e 31 139
e 32 43
e 32 44
e 32 45
e 32 47
e 32 53
e 32 55
e 32 56
e 32 57
e 32 59
e 32 62
e 32 64
e 32 66
e 32 68
e 32 69
e 32 72
e 32 75
e 32 76
e 32 77
e 32 78
e 32 79
e 32 82
e 32 83
e 32 85
e 32 86
e 32 89
e 32 90
e 32 93
e 32 94
e 32 95
e 32 98
e 32 100
e 32 102
e 32 103
e 32 106
e 32 107
e 32 108
e 32 109
e 32 110
e 32 113
e 32 114
e 32 118
e 32 123
e 32 124
e 32 125
e 32 130
e 32 131
e 32 132
e 32 139
e 33 41
e 33 45
e 33 48
e 33 50
e 33 57
e 33 58
e 33 59
e 33 63
e 33 65
e 33 67
e 33 69
e 33 71
e 33 74
e 33 75
e 33 76
e 33 77
e 33 81
e 33 82
e 33 83
e 33 86
e 33 88
e 33 90
e 33 92
e 33 93
e 33 95
e 33 97
e 33 98
e 33 99
e 33 101
e 33 102
e 33 103
e 33 105
e 33 107
e 33 110
e 33 111
e 33 112
e 33 114
e 33 115
e 33 118
e 33 121
e 33 127
e 33 128
e 33 129
e 33 133
e 33 134
e 33 135
e 33 137
e 33 140
e 34 42
e 34 43
e 34 46
e 34 47
e 34 50
e 34 51
e 34 55
e 34 56
e 34 58
e 34 59
e 34 60
e 34 62
e 34 66
e 34 69
e 34 72
e 34 73
e 34 75
e 34 76
e 34 77
e 34 78
e 34 80
e 34 83
e 34 84
e 34 85
e 34 88
e 34 92
e 34 95
e 34 96
e 34 99
e 34 100
e 34 101
e 34 103
e 34 104
e 34 107
e 34 109
e 34 110
e 34 111
e 34 112
e 34 113
e 34 114
e 34 117
e 34 118
e 34 121
e 34 122
e 34 124
e 34 125
e 34 126
e 34 129
e 34 132
e 34 133
e 34 134
e 34 135
e 34 136
e 34 139
e 34 140
e 35 41
e 35 42
e 35 44
e 35 45
e 35 46
e 35 47
e 35 50
e 35 52
e 35 53
e 35 54
e 35 55
e 35 57
e 35 59
e 35 61
e 35 64
e 35 65
e 35 66
e 35 67
e 35 69
e 35 73
e 35 75
e 35 79
e 35 81
e 35 82
e 35 83
e 35 84
e 35 85
e 35 86
e 35 87
e 35 90
e 35 93
e 35 95
e 35 96
e 35 97
e 35 98
e 35 99
e 35 100
e 35 101
e 35 104
e 35 106
e 35 108
e 35 109
e 35 110
e 35 111
e 35 116
e 35 122
e 35 123
e 35 126
e 35 128
e 35 130
e 35 131
e 35 133
e 35 134
e 36 41
e 36 44
e 36 45
e 36 47
e 36 49
e 36 51
e 36 53
e 36 55
e 36 59
e 36 60
e 36 61
e 36 62
e 36 67
e 36 69
e 36 73
e 36 74
e 36 79
e 36 80
e 36 84
e 36 85
e 36 86
e 36 88
e 36 92
e 36 93
e 36 94
e 36 95
e 36 96
e 36 97
e 36 98
e 36 99
e 36 101
e 36 103
e 36 104
e 36 106
e 36 109
e 36 112
e 36 114
e 36 119
e 36 120
e 36 121
e 36 125
e 36 128
e 36 131
e 36 133
e 36 134
e 36 135
e 36 137
e 36 139
e 36 140
e 37 41
e 37 45
e 37 46
e 37 47
e 37 48
e 37 51
e 37 52
e 37 54
e 37 55
e 37 57
e 37 67
e 37 68
e 37 69
e 37 71
e 37 76
e 37 77
e 37 81
e 37 82
e 37 84
e 37 88
e 37 89
e 37 90
e 37 91
e 37 92
e 37 93
e 37 94
e 37 96
e 37 97
e 37 98
e 37 99
e 37 102
e 37 106
e 37 107
e 37 108
e 37 110
e 37 116
e 37 118
e 37 122
e 37 125
e 37 128
e 37 129
e 37 131
e 37 133
e 37 134
e 37 135
e 37 138
e 37 139
e 38 47
e 38 49
e 38 50
e 38 51
e 38 52
e 38 57
e 38 61
e 38 64
e 38 66
e 38 69
e 38 70
e 38 71
e 38 72
e 38 74
e 38 75
e 38 79
e 38 80
e 38 82
e 38 83
e 38 86
e 38 87
e 38 92
e 38 93
e 38 94
e 38 95
e 38 97
e 38 98
e 38 99
e 38 100
e 38 102
e 38 103
e 38 104
e 38 107
e 38 108
e 38 112
e 38 113
e 38 114
e 38 116
e 38 117
e 38 120
e 38 121
e 38 123
e 38 125
e 38 130
e 38 134
e 38 137
e 38 139
e 39 41
e 39 42
e 39 43
e 39 44
e 39 47
e 39 48
e 39 50
e 39 52
e 39 53
e 39 54
e 39 56
e 39 61
e 39 62
e 39 63
e 39 66
e 39 67
e 39 69
e 39 71
e 39 73
e 39 74
e 39 75
e 39 76
e 39 80
e 39 81
e 39 85
e 39 86
e 39 88
e 39 90
e 39 92
e 39 95
e 39 96
e 39 97
e 39 98
e 39 99
e 39 102
e 39 105
e 39 106
e 39 107
e 39 108
e 39 109
e 39 111
e 39 112
e 39 114
e 39 116
e 39 117
e 39 121
e 39 122
e 39 124
e 39 126
e 39 127
e 39 130
e 39 135
e 39 136
e 39 137
e 39 140
e 40 41
e 40 42
e 40 43
e 40 45
e 40 46
e 40 50
e 40 53
e 40 57
e 40 61
e 40 68
e 40 69
e 40 72
e 40 73
e 40 74
e 40 77
e 40 79
e 40 80
e 40 83
e 40 85
e 40 87
e 40 92
e 40 95
e 40 96
e 40 99
e 40 102
e 40 104
e 40 105
e 40 107
e 40 109
e 40 110
e 40 114
e 40 115
e 40 116
e 40 118
e 40 119
e 40 120
e 40 123
e 40 126
e 40 127
e 40 133
e 40 134
e 40 136
e 40 137
e 40 139
e 41 61
e 41 65
e 41 66
e 41 67
e 41 72
e 41 74
e 41 75
e 41 81
e 41 82
e 41 83
e 41 84
e 41 85
e 41 87
e 41 88
e 41 91
e 41 92
e 41 93
e 41 96
e 41 97
e 41 98
e 41 103
e 41 106
e 41 107
e 41 109
e 41 111
e 41 112
e 41 113
e 41 116
e 41 118
e 41 120
e 41 121
e 41 124
e 41 125
e 41 128
e 41 129
e 41 131
e 41 132
e 41 133
e 41 134
e 41 135
e 42 61
e 42 63
e 42 64
e 42 66
e 42 67
e 42 68
e 42 69
e 42 74
e 42 79
e 42 80
e 42 82
e 42 83
e 42 85
e 42 87
e 42 88
e 42 90
e 42 94
e 42 95
e 42 98
e 42 100
e 42 102
e 42 104
e 42 107
e 42 109
e 42 110
e 42 111
e 42 113
e 42 117
e 42 118
e 42 122
e 42 123
e 42 125
e 42 126
e 42 128
e 42 129
e 42 130
e 42 132
e 42 133
e 42 134
e 42 138
e 42 140
e 43 61
e 43 62
e 43 64
e 43 66
e 43 68
e 43 69
e 43 71
e 43 73
e 43 75
e 43 77
e 43 79
e 43 82
e 43 86
e 43 87
e 43 88
e 43 89
e 43 90
e 43 91
e 43 92
e 43 94
e 43 98
e 43 99
e 43 100
e 43 101
e 43 104
e 43 107
e 43 108
e 43 109
e 43 115
e 43 116
e 43 118
e 43 119
e 43 126
e 43 127
e 43 128
e 43 129
e 43 131
e 43 132
e 43 134
e 43 135
e 43 137
e 43 138
e 43 140
e 44 62
e 44 67
e 44 68
e 44 69
e 44 71
e 44 72
e 44 73
e 44 74
e 44 79
e 44 81
e 44 85
e 44 86
e 44 87
e 44 90
e 44 93
e 44 94
e 44 95
e 44 96
e 44 97
e 44 98
e 44 99
e 44 100
e 44 101
e 44 103
e 44 104
e 44 110
e 44 111
e 44 112
e 44 113
e 44 114
e 44 116
e 44 117
e 44 119
e 44 122
e 44 125
e 44 126
e 44 130
e 44 131
e 44 135
e 44 136
e 44 139
e 44 140
e 45 62
e 45 63
e 45 67
e 45 68
e 45 69
e 45 75
e 45 76
e 45 77
e 45 78
e 45 79
e 45 80
e 45 86
e 45 93
e 45 95
e 45 96
e 45 97
e 45 98
e 45 99
e 45 100
e 45 101
e 45 102
e 45 103
e 45 104
e 45 105
e 45 106
e 45 115
e 45 116
e 45 118
e 45 119
e 45 123
e 45 126
e 45 127
e 45 130
e 45 131
e 45 133
e 45 135
e 45 136
e 45 138
e 45 140
e 46 66
e 46 68
e 46 73
e 46 74
e 46 75
e 46 78
e 46 79
e 46 81
e 46 84
e 46 86
e 46 87
e 46 88
e 46 89
e 46 90
e 46 91
e 46 101
e 46 102
e 46 103
e 46 104
e 46 105
e 46 106
e 46 107
e 46 109
e 46 110
e 46 112
e 46 113
e 46 119
e 46 120
e 46 121
e 46 122
e 46 123
e 46 126
e 46 127
e 46 130
e 46 134
e 46 136
e 46 137
e 46 138
e 47 64
e 47 66
e 47 69
e 47 70
e 47 71
e 47 72
e 47 74
e 47 75
e 47 78
e 47 80
e 47 83
e 47 84
e 47 85
e 47 89
e 47 90
e 47 92
e 47 93
e 47 94
e 47 98
e 47 102
e 47 105
e 47 108
e 47 110
e 47 111
e 47 112
e 47 114
e 47 115
e 47 117
e 47 118
e 47 121
e 47 123
e 47 124
e 47 127
e 47 128
e 47 129
e 47 131
e 47 135
e 47 136
e 47 137
e 48 61
e 48 62
e 48 69
e 48 70
e 48 71
e 48 73
e 48 76
e 48 77
e 48 79
e 48 80
e 48 82
e 48 83
e 48 86
e 48 88
e 48 91
e 48 94
e 48 96
e 48 97
e 48 102
e 48 103
e 48 104
e 48 106
e 48 108
e 48 112
e 48 114
e 48 118
e 48 122
e 48 125
e 48 126
e 48 127
e 48 129
e 48 132
e 48 134
e 48 137
e 48 138
e 49 62
e 49 63
e 49 64
e 49 68
e 49 69
e 49 72
e 49 73
e 49 74
e 49 75
e 49 83
e 49 84
e 49 88
e 49 90
e 49 91
e 49 92
e 49 93
e 49 94
e 49 95
e 49 98
e 49 102
e 49 103
e 49 104
e 49 106
e 49 108
e 49 109
e 49 110
e 49 111
e 49 113
e 49 114
e 49 116
e 49 125
e 49 126
e 49 131
e 49 132
e 49 133
e 49 137
e 50 61
e 50 62
e 50 67
e 50 68
e 50 69
e 50 71
e 50 73
e 50 74
e 50 75
e 50 76
e 50 77
e 50 78
e 50 80
e 50 81
e 50 83
e 50 87
e 50 88
e 50 89
e 50 93
e 50 97
e 50 99
e 50 101
e 50 102
e 50 103
e 50 105
e 50 107
e 50 108
e 50 110
e 50 111
e 50 114
e 50 115
e 50 116
e 50 117
e 50 120
e 50 121
e 50 122
e 50 123
e 50 125
e 50 128
e 50 130
e 50 132
e 50 133
e 50 134
e 50 136
e 50 137
e 50 139
e 51 61
e 51 62
e 51 63
e 51 70
e 51 74
e 51 75
e 51 85
e 51 86
e 51 87
e 51 89
e 51 93
e 51 94
e 51 96
e 51 100
e 51 103
e 51 104
e 51 106
e 51 107
e 51 109
e 51 111
e 51 115
e 51 116
e 51 117
e 51 118
e 51 119
e 51 122
e 51 124
e 51 126
e 51 129
e 51 132
e 51 134
e 51 138
e 51 139
e 51 140
e 52 61
e 52 62
e 52 64
e 52 65
e 52 67
e 52 68
e 52 70
e 52 71
e 52 74
e 52 77
e 52 79
e 52 80
e 52 81
e 52 83
e 52 84
e 52 85
e 52 86
e 52 90
e 52 91
e 52 94
e 52 97
e 52 99
e 52 102
e 52 104
e 52 105
e 52 107
e 52 109
e 52 115
e 52 116
e 52 117
e 52 118
e 52 119
e 52 120
e 52 121
e 52 126
e 52 130
e 52 131
e 52 136
e 52 137
e 52 138
e 53 63
e 53 65
e 53 70
e 53 73
e 53 74
e 53 78
e 53 83
e 53 84
e 53 85
e 53 87
e 53 88
e 53 89
e 53 91
e 53 93
e 53 95
e 53 96
e 53 97
e 53 98
e 53 99
e 53 100
e 53 101
e 53 102
e 53 103
e 53 104
e 53 107
e 53 111
e 53 112
e 53 113
e 53 114
e 53 120
e 53 121
e 53 122
e 53 123
e 53 124
e 53 125
e 53 129
e 53 136
e 53 137
e 53 140
e 54 61
e 54 62
e 54 63
e 54 65
e 54 69
e 54 71
e 54 76
e 54 77
e 54 78
e 54 79
e 54 80
e 54 83
e 54 84
e 54 86
e 54 87
e 54 88
e 54 89
e 54 92
e 54 95
e 54 100
e 54 101
e 54 102
e 54 103
e 54 105
e 54 108
e 54 110
e 54 112
e 54 113
e 54 114
e 54 115
e 54 116
e 54 117
e 54 121
e 54 122
e 54 125
e 54 128
e 54 129
e 54 134
e 54 135
e 54 136
e 55 61
e 55 62
e 55 66
e 55 67
e 55 68
e 55 70
e 55 75
e 55 76
e 55 77
e 55 78
e 55 80
e 55 81
e 55 82
e 55 83
e 55 86
e 55 87
e 55 88
e 55 90
e 55 91
e 55 92
e 55 94
e 55 100
e 55 102
e 55 103
e 55 105
e 55 106
e 55 108
e 55 113
e 55 116
e 55 120
e 55 121
e 55 125
e 55 127
e 55 128
e 55 130
e 55 132
e 55 134
e 55 136
e 55 137
e 56 62
e 56 64
e 56 66
e 56 67
e 56 70
e 56 75
e 56 76
e 56 79
e 56 80
e 56 82
e 56 84
e 56 86
e 56 88
e 56 89
e 56 90
e 56 91
e 56 94
e 56 95
e 56 97
e 56 99
e 56 101
e 56 102
e 56 103
e 56 105
e 56 106
e 56 109
e 56 112
e 56 114
e 56 118
e 56 120
e 56 123
e 56 124
e 56 125
e 56 126
e 56 129
e 56 130
e 56 131
e 56 132
e 56 133
e 56 134
e 56 135
e 56 138
e 57 62
e 57 63
e 57 65
e 57 69
e 57 70
e 57 71
e 57 72
e 57 74
e 57 75
e 57 77
e 57 80
e 57 81
e 57 83
e 57 84
e 57 86
e 57 88
e 57 89
e 57 90
e 57 91
e 57 92
e 57 94
e 57 96
e 57 97
e 57 99
e 57 101
e 57 103
e 57 107
e 57 108
e 57 109
e 57 110
e 57 112
e 57 117
e 57 122
e 57 125
e 57 126
e 57 128
e 57 129
e 57 130
e 57 131
e 57 132
e 57 133
e 57 134
e 57 135
e 57 138
e 57 139
e 57 140
e 58 62
e 58 65
e 58 67
e 58 68
e 58 69
e 58 71
e 58 72
e 58 73
e 58 75
e 58 76
e 58 77
e 58 79
e 58 81
e 58 82
e 58 84
e 58 87
e 58 89
e 58 93
e 58 94
e 58 95
e 58 96
e 58 99
e 58 101
e 58 105
e 58 106
e 58 108
e 58 110
e 58 111
e 58 112
e 58 115
e 58 123
e 58 125
e 58 127
e 58 128
e 58 130
e 58 131
e 58 135
e 59 61
e 59 62
e 59 63
e 59 64
e 59 65
e 59 66
e 59 68
e 59 70
e 59 72
e 59 73
e 59 74
e 59 75
e 59 76
e 59 77
e 59 78
e 59 79
e 59 80
e 59 86
e 59 89
e 59 90
e 59 91
e 59 92
e 59 96
e 59 98
e 59 100
e 59 101
e 59 102
e 59 103
e 59 104
e 59 105
e 59 106
e 59 108
e 59 109
e 59 111
e 59 113
e 59 115
e 59 117
e 59 121
e 59 122
e 59 125
e 59 128
e 59 130
e 59 133
e 59 134
e 59 135
e 60 63
e 60 65
e 60 66
e 60 68
e 60 69
e 60 70
e 60 72
e 60 73
e 60 76
e 60 77
e 60 84
e 60 88
e 60 89
e 60 91
e 60 96
e 60 97
e 60 98
e 60 101
e 60 103
e 60 104
e 60 105
e 60 106
e 60 108
e 60 113
e 60 114
e 60 117
e 60 120
e 60 121
e 60 122
e 60 125
e 60 126
e 60 127
e 60 129
e 60 132
e 60 133
e 60 139
e 60 140
e 61 81
e 61 83
e 61 84
e 61 86
e 61 87
e 61 88
e 61 92
e 61 93
e 61 101
e 61 103
e 61 104
e 61 105
e 61 108
e 61 109
e 61 113
e 61 114
e 61 115
e 61 116
e 61 117
e 61 118
e 61 122
e 61 123
e 61 124
e 61 126
e 61 129
e 61 130
e 61 131
e 61 132
e 61 133
e 61 137
e 61 138
e 61 139
e 61 140
e 62 83
e 62 87
e 62 88
e 62 91
e 62 92
e 62 93
e 62 96
e 62 99
e 62 101
e 62 102
e 62 106
e 62 109
e 62 110
e 62 112
e 62 114
e 62 117
e 62 119
e 62 120
e 62 123
e 62 125
e 62 127
e 62 131
e 62 132
e 62 133
e 62 136
e 62 138
e 62 139
e 63 81
e 63 82
e 63 86
e 63 88
e 63 90
e 63 93
e 63 97
e 63 99
e 63 102
e 63 103
e 63 105
e 63 106
e 63 108
e 63 115
e 63 117
e 63 119
e 63 120
e 63 121
e 63 122
e 63 123
e 63 124
e 63 126
e 63 128
e 63 129
e 63 131
e 63 135
e 63 137
e 63 138
e 64 83
e 64 84
e 64 86
e 64 87
e 64 92
e 64 94
e 64 96
e 64 99
e 64 100
e 64 101
e 64 102
e 64 109
e 64 110
e 64 111
e 64 115
e 64 116
e 64 117
e 64 119
e 64 120
e 64 122
e 64 126
e 64 127
e 64 129
e 64 131
e 64 132
e 64 133
e 64 134
e 64 135
e 64 136
e 64 138
e 64 139
e 64 140
e 65 84
e 65 85
e 65 87
e 65 88
e 65 90
e 65 91
e 65 92
e 65 94
e 65 96
e 65 97
e 65 101
e 65 103
e 65 104
e 65 109
e 65 111
e 65 119
e 65 122
e 65 123
e 65 126
e 65 127
e 65 128
e 65 129
e 65 130
e 65 131
e 65 132
e 65 138
e 66 81
e 66 89
e 66 91
e 66 93
e 66 94
e 66 96
e 66 100
e 66 103
e 66 104
e 66 107
e 66 110
e 66 111
e 66 112
e 66 113
e 66 116
e 66 117
e 66 118
e 66 120
e 66 122
e 66 124
e 66 125
e 66 131
e 66 134
e 66 135
e 66 136
e 66 139
e 66 140
e 67 82
e 67 84
e 67 86
e 67 87
e 67 89
e 67 90
e 67 93
e 67 94
e 67 97
e 67 98
e 67 108
e 67 109
e 67 118
e 67 119
e 67 121
e 67 122
e 67 124
e 67 129
e 67 130
e 67 133
e 67 138
e 67 139
e 68 82
e 68 84
e 68 86
e 68 88
e 68 89
e 68 93
e 68 94
e 68 96
e 68 97
e 68 98
e 68 99
e 68 100
e 68 101
e 68 102
e 68 104
e 68 105
e 68 110
e 68 111
e 68 112
e 68 113
e 68 115
e 68 117
e 68 120
e 68 122
e 68 124
e 68 126
e 68 127
e 68 129
e 68 130
e 68 131
e 68 132
e 68 134
e 68 137
e 68 138
e 68 139
e 69 81
e 69 83
e 69 86
e 69 88
e 69 89
e 69 90
e 69 91
e 69 93
e 69 94
e 69 95
e 69 96
e 69 99
e 69 100
e 69 103
e 69 106
e 69 107
e 69 108
e 69 109
e 69 110
e 69 112
e 69 115
e 69 116
e 69 117
e 69 121
e 69 123
e 69 124
e 69 125
e 69 128
e 69 129
e 69 133
e 69 136
e 69 138
e 69 139
e 69 140
e 70 81
e 70 85
e 70 89
e 70 90
e 70 91
e 70 92
e 70 94
e 70 97
e 70 101
e 70 104
e 70 105
e 70 108
e 70 109
e 70 114
e 70 115
e 70 116
e 70 118
e 70 120
e 70 121
e 70 122
e 70 124
e 70 125
e 70 126
e 70 129
e 70 131
e 70 133
e 70 137
e 70 138
e 70 140
e 71 82
e 71 83
e 71 84
e 71 86
e 71 88
e 71 89
e 71 94
e 71 96
e 71 98
e 71 100
e 71 103
e 71 104
e 71 106
e 71 107
e 71 109
e 71 112
e 71 113
e 71 115
e 71 122
e 71 123
e 71 124
e 71 125
e 71 126
e 71 129
e 71 130
e 71 134
e 71 135
e 71 136
e 71 139
e 72 82
e 72 83
e 72 85
e 72 86
e 72 87
e 72 89
e 72 92
e 72 93
e 72 95
e 72 97
e 72 98
e 72 100
e 72 101
e 72 102
e 72 108
e 72 109
e 72 111
e 72 116
e 72 118
e 72 119
e 72 120
e 72 121
e 72 122
e 72 123
e 72 126
e 72 130
e 72 131
e 72 134
e 72 135
e 72 137
e 72 138
e 72 139
e 73 81
e 73 82
e 73 87
e 73 89
e 73 90
e 73 91
e 73 92
e 73 93
e 73 94
e 73 96
e 73 98
e 73 99
e 73 101
e 73 102
e 73 103
e 73 104
e 73 105
e 73 107
e 73 108
e 73 110
e 73 114
e 73 117
e 73 120
e 73 122
e 73 123
e 73 125
e 73 126
e 73 129
e 73 132
e 73 133
e 73 135
e 73 138
e 73 139
e 73 140
e 74 82
e 74 84
e 74 85
e 74 89
e 74 90
e 74 92
e 74 93
e 74 94
e 74 98
e 74 101
e 74 103
e 74 104
e 74 105
e 74 108
e 74 111
e 74 118
e 74 120
e 74 121
e 74 122
e 74 123
e 74 132
e 74 133
e 74 134
e 74 136
e 74 137
e 74 138
e 75 83
e 75 85
e 75 87
e 75 88
e 75 93
e 75 97
e 75 100
e 75 101
e 75 104
e 75 105
e 75 107
e 75 108
e 75 110
e 75 113
e 75 114
e 75 115
e 75 116
e 75 122
e 75 123
e 75 124
e 75 125
e 75 127
e 75 130
e 75 133
e 75 134
e 75 136
e 75 137
e 75 138
e 75 139
e 76 81
e 76 82
e 76 84
e 76 88
e 76 91
e 76 92
e 76 94
e 76 95
e 76 99
e 76 100
e 76 101
e 76 102
e 76 103
e 76 105
e 76 108
e 76 111
e 76 113
e 76 115
e 76 117
e 76 118
e 76 119
e 76 121
e 76 125
e 76 126
e 76 128
e 76 131
e 76 135
e 76 136
e 76 140
e 77 82
e 77 84
e 77 85
e 77 86
e 77 87
e 77 89
e 77 90
e 77 91
e 77 92
e 77 93
e 77 95
e 77 98
e 77 99
e 77 100
e 77 101
e 77 102
e 77 103
e 77 104
e 77 106
e 77 109
e 77 110
e 77 113
e 77 114
e 77 115
e 77 118
e 77 120
e 77 126
e 77 127
e 77 128
e 77 129
e 77 132
e 77 133
e 77 134
e 77 137
e 77 140
e 78 82
e 78 83
e 78 85
e 78 87
e 78 89
e 78 95
e 78 96
e 78 97
e 78 98
e 78 99
e 78 102
e 78 105
e 78 106
e 78 107
e 78 109
e 78 110
e 78 111
e 78 114
e 78 115
e 78 117
e 78 118
e 78 119
e 78 120
e 78 123
e 78 124
e 78 126
e 78 127
e 78 130
e 78 132
e 78 133
e 78 137
e 78 139
e 78 140
e 79 83
e 79 84
e 79 87
e 79 89
e 79 94
e 79 95
e 79 96
e 79 98
e 79 99
e 79 101
e 79 103
e 79 104
e 79 105
e 79 107
e 79 108
e 79 111
e 79 112
e 79 113
e 79 114
e 79 115
e 79 117
e 79 121
e 79 122
e 79 123
e 79 125
e 79 127
e 79 130
e 79 131
e 79 135
e 79 137
e 79 140
e 80 81
e 80 84
e 80 86
e 80 87
e 80 90
e 80 91
e 80 96
e 80 98
e 80 99
e 80 100
e 80 106
e 80 108
e 80 109
e 80 110
e 80 111
e 80 112
e 80 113
e 80 116
e 80 118
e 80 122
e 80 126
e 80 129
e 80 132
e 80 134
e 80 136
e 81 104
e 81 105
e 81 106
e 81 112
e 81 115
e 81 117
e 81 118
e 81 119
e 81 120
e 81 121
e 81 126
e 81 127
e 81 129
e 81 130
e 81 131
e 81 132
e 81 137
e 81 138
e 82 101
e 82 104
e 82 106
e 82 109
e 82 110
e 82 111
e 82 112
e 82 114
e 82 115
e 82 117
e 82 122
e 82 128
e 82 129
e 82 130
e 82 131
e 82 132
e 82 136
e 82 139
e 82 140
e 83 101
e 83 102
e 83 104
e 83 105
e 83 109
e 83 110
e 83 112
e 83 113
e 83 117
e 83 125
e 83 126
e 83 127
e 83 130
e 83 132
e 83 133
e 83 137
e 83 139
e 83 140
e 84 101
e 84 106
e 84 107
e 84 108
e 84 109
e 84 110
e 84 112
e 84 118
e 84 122
e 84 124
e 84 125
e 84 126
e 84 128
e 84 132
e 84 133
e 84 134
e 84 135
e 84 137
e 84 140
e 85 101
e 85 104
e 85 109
e 85 110
e 85 112
e 85 114
e 85 116
e 85 118
e 85 119
e 85 123
e 85 124
e 85 126
e 85 128
e 85 130
e 85 134
e 85 136
e 85 138
e 85 139
e 85 140
e 86 106
e 86 107
e 86 111
e 86 114
e 86 116
e 86 119
e 86 120
e 86 121
e 86 122
e 86 127
e 86 131
e 86 134
e 86 135
e 86 136
e 86 138
e 86 139
e 86 140
e 87 102
e 87 103
e 87 112
e 87 115
e 87 116
e 87 117
e 87 120
e 87 122
e 87 123
e 87 124
e 87 125
e 87 127
e 87 129
e 87 131
e 87 132
e 87 134
e 87 135
e 87 137
e 87 139
e 87 140
e 88 101
e 88 103
e 88 105
e 88 113
e 88 116
e 88 117
e 88 119
e 88 122
e 88 123
e 88 124
e 88 126
e 88 133
e 88 134
e 88 136
e 88 137
e 88 140
e 89 102
e 89 104
e 89 105
e 89 107
e 89 109
e 89 113
e 89 114
e 89 115
e 89 117
e 89 121
e 89 122
e 89 125
e 89 126
e 89 137
e 89 138
e 89 140
e 90 101
e 90 102
e 90 105
e 90 107
e 90 109
e 90 115
e 90 116
e 90 122
e 90 123
e 90 126
e 90 132
e 90 136
e 91 105
e 91 107
e 91 114
e 91 116
e 91 121
e 91 122
e 91 124
e 91 125
e 91 130
e 91 131
e 91 133
e 91 137
e 91 140
e 92 101
e 92 102
e 92 103
e 92 105
e 92 107
e 92 109
e 92 110
e 92 111
e 92 112
e 92 116
e 92 118
e 92 121
e 92 124
e 92 125
e 92 127
e 92 132
e 92 134
e 92 135
e 92 138
e 92 139
e 93 101
e 93 103
e 93 108
e 93 114
e 93 116
e 93 118
e 93 119
e 93 122
e 93 124
e 93 125
e 93 129
e 93 130
e 93 133
e 93 134
e 93 135
e 93 136
e 93 137
e 93 139
e 93 140
e 94 101
e 94 102
e 94 105
e 94 108
e 94 112
e 94 114
e 94 118
e 94 119
e 94 120
e 94 121
e 94 122
e 94 124
e 94 126
e 94 128
e 94 130
e 94 131
e 94 133
e 94 134
e 94 135
e 94 138
e 94 139
e 95 101
e 95 106
e 95 110
e 95 111
e 95 113
e 95 114
e 95 115
e 95 116
e 95 118
e 95 121
e 95 122
e 95 124
e 95 126
e 95 129
e 95 130
e 95 133
e 95 136
e 95 138
e 95 139
e 96 103
e 96 105
e 96 109
e 96 112
e 96 114
e 96 118
e 96 120
e 96 121
e 96 123
e 96 124
e 96 130
e 96 132
e 96 133
e 96 134
e 96 135
e 96 136
e 96 137
e 96 139
e 96 140
e 97 103
e 97 104
e 97 106
e 97 110
e 97 111
e 97 112
e 97 116
e 97 117
e 97 118
e 97 119
e 97 121
e 97 124
e 97 125
e 97 126
e 97 130
e 97 133
e 97 140
e 98 101
e 98 102
e 98 106
e 98 107
e 98 109
e 98 111
e 98 113
e 98 114
e 98 115
e 98 117
e 98 122
e 98 123
e 98 124
e 98 125
e 98 127
e 98 128
e 98 129
e 98 131
e 98 133
e 98 136
e 98 137
e 98 139
e 99 101
e 99 104
e 99 108
e 99 109
e 99 110
e 99 117
e 99 119
e 99 121
e 99 123
e 99 124
e 99 126
e 99 128
e 99 130
e 99 133
e 99 135
e 99 136
e 99 138
e 99 139
e 99 140
e 100 102
e 100 106
e 100 107
e 100 109
e 100 112
e 100 113
e 100 115
e 100 117
e 100 118
e 100 120
e 100 121
e 100 122
e 100 126
e 100 129
e 100 130
e 100 131
e 100 133
e 100 137
e 100 138
e 100 139
e 100 140
e 101 122
e 101 123
e 101 124
e 101 125
e 101 130
e 101 132
e 101 134
e 101 135
e 101 136
e 101 137
e 101 138
e 102 121
e 102 124
e 102 126
e 102 128
e 102 129
e 102 130
e 102 131
e 102 135
e 102 136
e 102 138
e 102 140
e 103 122
e 103 129
e 103 133
e 103 138
e 103 139
e 104 122
e 104 124
e 104 125
e 104 126
e 104 133
e 104 138
e 105 121
e 105 122
e 105 123
e 105 126
e 105 127
e 105 128
e 105 129
e 105 132
e 105 133
e 105 136
e 105 138
e 105 140
e 106 126
e 106 130
e 106 131
e 106 132
e 106 134
e 106 136
e 106 138
e 106 140
e 107 126
e 107 127
e 107 128
e 107 129
e 107 131
e 107 134
e 107 137
e 107 139
e 107 140
e 108 122
e 108 123
e 108 125
e 108 126
e 108 129
e 108 130
e 108 131
e 108 132
e 108 135
e 108 137
e 108 138
e 109 124
e 109 127
e 109 132
e 109 134
e 109 140
e 110 121
e 110 124
e 110 129
e 110 135
e 110 137
e 110 140
e 111 122
e 111 124
e 111 125
e 111 126
e 111 127
e 111 128
e 111 130
e 111 131
e 111 132
e 111 135
e 111 136
e 111 137
e 111 140
e 112 121
e 112 122
e 112 126
e 112 127
e 112 131
e 112 132
e 112 136
e 112 140
e 113 122
e 113 124
e 113 130
e 113 132
e 113 133
e 113 134
e 113 135
e 113 138
e 113 139
e 113 140
e 114 122
e 114 125
e 114 127
e 114 130
e 114 131
e 114 136
e 114 138
e 114 139
e 115 121
e 115 123
e 115 125
e 115 126
e 115 129
e 115 132
e 115 134
e 115 137
e 115 138
e 115 139
e 115 140
e 116 122
e 116 124
e 116 125
e 116 126
e 116 127
e 116 129
e 116 132
e 116 134
e 116 135
e 116 136
e 116 138
e 117 121
e 117 124
e 117 126
e 117 128
e 117 131
e 117 133
e 117 137
e 117 140
e 118 122
e 118 124
e 118 125
e 118 126
e 118 127
e 118 130
e 118 133
e 118 134
e 118 135
e 119 121
e 119 122
e 119 123
e 119 125
e 119 126
e 119 127
e 119 131
e 119 133
e 119 135
e 119 136
e 119 137
e 120 124
e 120 126
e 120 132
e 120 135
e 120 136
e 120 138
e 120 140
