c FILE: balanced_graphs/balanced_140_7_50_5.col
c
c DESCRIPTION: Random balanced graph, 140 nodes,
c              partitions 7
c              edge probability 0.5
c
c G(140,7,0.5) graph
c number of vertices : 140
c max number of edges: 9730
c edge probability   : 0.5
c
c           Graph Stats
c number of vertices  : 140
c nonisolated vertices: 140
c number of edges     : 4157
c edge density        : 0.4272
c max degree          : 75
c avg degree          : 59.39
c min degree          : 42
c
p col 140 4157
e 1 22
e 1 26
e 1 27
e 1 28
e 1 30
e 1 31
e 1 37
e 1 38
e 1 39
e 1 40
e 1 42
e 1 44
e 1 45
e 1 47
e 1 49
e 1 50
e 1 51
e 1 52
e 1 53
e 1 57
e 1 58
e 1 59
e 1 60
e 1 65
e 1 72
e 1 73
e 1 74
e 1 81
e 1 83
e 1 84
e 1 85
e 1 88
e 1 91
e 1 98
e 1 99
e 1 100
e 1 102
e 1 106
e 1 107
e 1 109
e 1 113
e 1 114
e 1 121
e 1 123
e 1 124
e 1 125
e 1 128
e 1 132
e 1 133
e 1 135
e 1 136
e 1 137
e 1 138
e 1 139
e 1 140
e 2 23
e 2 25
e 2 28
e 2 29
e 2 31
e 2 33
e 2 34
e 2 35
e 2 36
e 2 38
e 2 43
e 2 45
e 2 52
e 2 53
e 2 54
e 2 58
e 2 59
e 2 60
e 2 61
e 2 66
e 2 70
e 2 71
e 2 74
e 2 76
e 2 77
e 2 78
e 2 79
e 2 82
e 2 83
e 2 85
e 2 87
e 2 88
e 2 89
e 2 90
e 2 92
e 2 93
e 2 94
e 2 95
e 2 96
e 2 98
e 2 99
e 2 100
e 2 101
e 2 102
e 2 103
e 2 104
e 2 106
e 2 110
e 2 113
e 2 117
e 2 118
e 2 120
e 2 121
e 2 122
e 2 123
e 2 124
e 2 126
e 2 127
e 2 128
e 2 133
e 2 135
e 2 136
e 2 137
e 2 140
e 3 22
e 3 23
e 3 26
e 3 28
e 3 29
e 3 30
e 3 32
e 3 35
e 3 37
e 3 38
e 3 39
e 3 42
e 3 44
e 3 51
e 3 54
e 3 56
e 3 57
e 3 58
e 3 59
e 3 61
e 3 62
e 3 64
e 3 65
e 3 66
e 3 67
e 3 70
e 3 71
e 3 74
e 3 75
e 3 78
e 3 79
e 3 81
e 3 82
e 3 83
e 3 84
e 3 88
e 3 89
e 3 90
e 3 91
e 3 96
e 3 98
e 3 100
e 3 104
e 3 106
e 3 110
e 3 112
e 3 115
e 3 117
e 3 118
e 3 119
e 3 121
e 3 124
e 3 125
e 3 126
e 3 129
e 3 131
e 3 134
e 3 136
e 3 139
e 4 23
e 4 25
e 4 29
e 4 31
e 4 32
e 4 34
e 4 35
e 4 36
e 4 37
e 4 42
e 4 43
e 4 48
e 4 49
e 4 50
e 4 51
e 4 55
e 4 56
e 4 57
e 4 63
e 4 65
e 4 69
e 4 70
e 4 73
e 4 75
e 4 77
e 4 79
e 4 81
e 4 86
e 4 88
e 4 93
e 4 94
e 4 95
e 4 96
e 4 97
e 4 99
e 4 101
e 4 102
e 4 107
e 4 109
e 4 110
e 4 111
e 4 116
e 4 117
e 4 118
e 4 119
e 4 120
e 4 122
e 4 125
e 4 126
e 4 127
e 4 128
e 4 129
e 4 131
e 4 132
e 4 133
e 4 136
e 4 138
e 4 139
e 5 21
e 5 24
e 5 28
e 5 34
e 5 37
e 5 38
e 5 40
e 5 41
e 5 43
e 5 44
e 5 45
e 5 46
e 5 50
e 5 51
e 5 52
e 5 55
e 5 59
e 5 60
e 5 62
e 5 63
e 5 66
e 5 67
e 5 69
e 5 71
e 5 72
e 5 73
e 5 74
e 5 77
e 5 81
e 5 82
e 5 83
e 5 84
e 5 85
e 5 92
e 5 93
e 5 95
e 5 96
e 5 98
e 5 99
e 5 102
e 5 104
e 5 106
e 5 110
e 5 111
e 5 113
e 5 120
e 5 121
e 5 122
e 5 123
e 5 124
e 5 127
e 5 128
e 5 129
e 5 131
e 5 132
e 5 135
e 5 137
e 6 22
e 6 24
e 6 25
e 6 27
e 6 29
e 6 30
e 6 31
e 6 32
e 6 36
e 6 39
e 6 41
e 6 43
e 6 45
e 6 49
e 6 51
e 6 56
e 6 59
e 6 61
e 6 63
e 6 67
e 6 70
e 6 72
e 6 73
e 6 76
e 6 77
e 6 79
e 6 80
e 6 82
e 6 83
e 6 84
e 6 87
e 6 89
e 6 92
e 6 94
e 6 99
e 6 100
e 6 101
e 6 102
e 6 104
e 6 106
e 6 107
e 6 108
e 6 110
e 6 113
e 6 114
e 6 115
e 6 116
e 6 119
e 6 120
e 6 122
e 6 124
e 6 125
e 6 128
e 6 130
e 6 135
e 6 137
e 6 138
e 7 23
e 7 25
e 7 26
e 7 27
e 7 31
e 7 32
e 7 33
e 7 36
e 7 37
e 7 39
e 7 40
e 7 44
e 7 46
e 7 48
e 7 49
e 7 50
e 7 51
e 7 52
e 7 53
e 7 54
e 7 55
e 7 56
e 7 57
e 7 58
e 7 59
e 7 62
e 7 63
e 7 65
e 7 70
e 7 72
e 7 75
e 7 78
e 7 79
e 7 80
e 7 82
e 7 83
e 7 84
e 7 85
e 7 91
e 7 92
e 7 94
e 7 99
e 7 100
e 7 102
e 7 104
e 7 105
e 7 107
e 7 108
e 7 109
e 7 111
e 7 112
e 7 113
e 7 114
e 7 115
e 7 117
e 7 118
e 7 122
e 7 123
e 7 124
e 7 125
e 7 126
e 7 128
e 7 129
e 7 132
e 7 134
e 7 135
e 7 140
e 8 22
e 8 23
e 8 24
e 8 25
e 8 27
e 8 29
e 8 30
e 8 32
e 8 33
e 8 35
e 8 36
e 8 40
e 8 43
e 8 44
e 8 45
e 8 46
e 8 47
e 8 50
e 8 54
e 8 55
e 8 56
e 8 57
e 8 58
e 8 59
e 8 60
e 8 64
e 8 66
e 8 67
e 8 69
e 8 72
e 8 73
e 8 81
e 8 82
e 8 83
e 8 84
e 8 87
e 8 88
e 8 91
e 8 94
e 8 95
e 8 101
e 8 102
e 8 105
e 8 106
e 8 110
e 8 112
e 8 114
e 8 119
e 8 120
e 8 121
e 8 124
e 8 125
e 8 126
e 8 127
e 8 129
e 8 131
e 8 134
e 8 140
e 9 21
e 9 22
e 9 23
e 9 27
e 9 28
e 9 31
e 9 32
e 9 33
e 9 34
e 9 36
e 9 37
e 9 38
e 9 42
e 9 44
e 9 45
e 9 49
e 9 52
e 9 53
e 9 54
e 9 56
e 9 57
e 9 58
e 9 59
e 9 60
e 9 61
e 9 63
e 9 66
e 9 67
e 9 68
e 9 69
e 9 71
e 9 72
e 9 74
e 9 75
e 9 76
e 9 82
e 9 84
e 9 85
e 9 87
e 9 88
e 9 89
e 9 90
e 9 92
e 9 94
e 9 95
e 9 98
e 9 99
e 9 102
e 9 105
e 9 108
e 9 119
e 9 121
e 9 122
e 9 123
e 9 125
e 9 127
e 9 128
e 9 129
e 9 130
e 9 134
e 9 135
e 9 136
e 9 138
e 10 21
e 10 22
e 10 23
e 10 24
e 10 26
e 10 27
e 10 30
e 10 33
e 10 38
e 10 39
e 10 42
e 10 43
e 10 45
e 10 47
e 10 49
e 10 53
e 10 55
e 10 56
e 10 57
e 10 58
e 10 60
e 10 62
e 10 64
e 10 71
e 10 72
e 10 73
e 10 74
e 10 78
e 10 81
e 10 82
e 10 85
e 10 89
e 10 90
e 10 91
e 10 92
e 10 93
e 10 95
e 10 96
e 10 99
e 10 101
e 10 103
e 10 105
e 10 107
e 10 108
e 10 110
e 10 111
e 10 113
e 10 114
e 10 115
e 10 118
e 10 120
e 10 121
e 10 122
e 10 123
e 10 124
e 10 131
e 10 132
e 10 133
e 10 137
e 10 138
e 10 139
e 10 140
e 11 23
e 11 25
e 11 27
e 11 30
e 11 32
e 11 33
e 11 35
e 11 36
e 11 37
e 11 41
e 11 42
e 11 44
e 11 49
e 11 50
e 11 53
e 11 55
e 11 56
e 11 59
e 11 60
e 11 64
e 11 66
e 11 68
e 11 69
e 11 74
e 11 78
e 11 85
e 11 86
e 11 87
e 11 88
e 11 92
e 11 94
e 11 95
e 11 98
e 11 99
e 11 104
e 11 106
e 11 107
e 11 109
e 11 110
e 11 112
e 11 115
e 11 119
e 11 121
e 11 122
e 11 124
e 11 125
e 11 127
e 11 129
e 11 130
e 11 131
e 11 134
e 11 137
e 12 25
e 12 27
e 12 28
e 12 31
e 12 32
e 12 34
e 12 35
e 12 36
e 12 42
e 12 43
e 12 48
e 12 51
e 12 52
e 12 53
e 12 56
e 12 60
e 12 61
e 12 62
e 12 65
e 12 68
e 12 69
e 12 70
e 12 72
e 12 76
e 12 77
e 12 79
e 12 80
e 12 83
e 12 92
e 12 93
e 12 94
e 12 96
e 12 98
e 12 101
e 12 102
e 12 103
e 12 110
e 12 113
e 12 114
e 12 116
e 12 117
e 12 118
e 12 121
e 12 125
e 12 128
e 12 130
e 12 134
e 12 135
e 12 136
e 12 137
e 12 140
e 13 24
e 13 28
e 13 32
e 13 33
e 13 36
e 13 41
e 13 42
e 13 44
e 13 45
e 13 47
e 13 49
e 13 50
e 13 51
e 13 53
e 13 55
e 13 56
e 13 57
e 13 59
e 13 60
e 13 62
e 13 65
e 13 66
e 13 70
e 13 71
e 13 72
e 13 74
e 13 77
e 13 78
e 13 80
e 13 81
e 13 85
e 13 87
e 13 88
e 13 89
e 13 90
e 13 91
e 13 92
e 13 93
e 13 96
e 13 98
e 13 101
e 13 104
e 13 106
e 13 107
e 13 109
e 13 110
e 13 111
e 13 115
e 13 116
e 13 123
e 13 126
e 13 128
e 13 131
e 13 132
e 13 133
e 13 134
e 13 139
e 13 140
e 14 21
e 14 22
e 14 23
e 14 24
e 14 25
e 14 27
e 14 30
e 14 31
e 14 33
e 14 34
e 14 37
e 14 39
e 14 40
e 14 41
e 14 45
e 14 48
e 14 50
e 14 51
e 14 53
e 14 55
e 14 56
e 14 57
e 14 58
e 14 60
e 14 62
e 14 69
e 14 70
e 14 71
e 14 73
e 14 76
e 14 78
e 14 81
e 14 82
e 14 85
e 14 86
e 14 87
e 14 89
e 14 93
e 14 96
e 14 98
e 14 103
e 14 105
e 14 111
e 14 113
e 14 115
e 14 118
e 14 122
e 14 124
e 14 126
e 14 127
e 14 129
e 14 132
e 14 134
e 14 135
e 14 138
e 15 21
e 15 24
e 15 27
e 15 29
e 15 30
e 15 35
e 15 37
e 15 41
e 15 42
e 15 44
e 15 45
e 15 47
e 15 48
e 15 50
e 15 51
e 15 52
e 15 53
e 15 56
e 15 59
e 15 61
e 15 64
e 15 65
e 15 66
e 15 69
e 15 70
e 15 73
e 15 74
e 15 75
e 15 76
e 15 77
e 15 79
e 15 84
e 15 87
e 15 89
e 15 91
e 15 93
e 15 94
e 15 96
e 15 98
e 15 99
e 15 100
e 15 106
e 15 111
e 15 112
e 15 118
e 15 119
e 15 120
e 15 122
e 15 123
e 15 124
e 15 131
e 15 132
e 15 133
e 15 134
e 15 135
e 15 139
e 16 21
e 16 27
e 16 29
e 16 30
e 16 32
e 16 33
e 16 34
e 16 36
e 16 38
e 16 40
e 16 41
e 16 45
e 16 47
e 16 55
e 16 56
e 16 60
e 16 62
e 16 64
e 16 68
e 16 69
e 16 72
e 16 73
e 16 75
e 16 76
e 16 79
e 16 82
e 16 83
e 16 86
e 16 87
e 16 88
e 16 89
e 16 92
e 16 93
e 16 97
e 16 98
e 16 99
e 16 100
e 16 101
e 16 102
e 16 103
e 16 106
e 16 110
e 16 111
e 16 113
e 16 114
e 16 115
e 16 118
e 16 119
e 16 120
e 16 122
e 16 123
e 16 124
e 16 125
e 16 126
e 16 128
e 16 129
e 16 130
e 16 131
e 16 132
e 16 133
e 16 135
e 16 137
e 16 138
e 16 139
e 17 22
e 17 24
e 17 27
e 17 29
e 17 31
e 17 32
e 17 33
e 17 35
e 17 37
e 17 38
e 17 39
e 17 42
e 17 44
e 17 48
e 17 49
e 17 50
e 17 52
e 17 54
e 17 55
e 17 57
e 17 59
e 17 60
e 17 61
e 17 62
e 17 63
e 17 64
e 17 65
e 17 73
e 17 74
e 17 76
e 17 77
e 17 79
e 17 83
e 17 84
e 17 86
e 17 87
e 17 93
e 17 96
e 17 98
e 17 101
e 17 102
e 17 104
e 17 111
e 17 113
e 17 115
e 17 116
e 17 117
e 17 118
e 17 121
e 17 124
e 17 125
e 17 126
e 17 127
e 17 134
e 17 137
e 17 139
e 18 21
e 18 22
e 18 23
e 18 25
e 18 28
e 18 29
e 18 30
e 18 32
e 18 33
e 18 35
e 18 36
e 18 37
e 18 38
e 18 40
e 18 41
e 18 42
e 18 44
e 18 48
e 18 50
e 18 53
e 18 55
e 18 57
e 18 60
e 18 61
e 18 63
e 18 66
e 18 67
e 18 70
e 18 72
e 18 76
e 18 77
e 18 78
e 18 79
e 18 80
e 18 82
e 18 84
e 18 86
e 18 87
e 18 92
e 18 94
e 18 96
e 18 98
e 18 99
e 18 100
e 18 103
e 18 107
e 18 108
e 18 114
e 18 117
e 18 121
e 18 122
e 18 123
e 18 124
e 18 125
e 18 128
e 18 129
e 18 130
e 18 131
e 18 134
e 18 136
e 19 22
e 19 26
e 19 28
e 19 30
e 19 31
e 19 37
e 19 38
e 19 39
e 19 41
e 19 48
e 19 49
e 19 50
e 19 52
e 19 53
e 19 55
e 19 56
e 19 63
e 19 64
e 19 66
e 19 68
e 19 72
e 19 73
e 19 75
e 19 77
e 19 78
e 19 80
e 19 81
e 19 86
e 19 88
e 19 91
e 19 92
e 19 94
e 19 95
e 19 96
e 19 99
e 19 100
e 19 101
e 19 102
e 19 103
e 19 105
e 19 106
e 19 107
e 19 108
e 19 109
e 19 110
e 19 111
e 19 112
e 19 115
e 19 116
e 19 119
e 19 122
e 19 123
e 19 124
e 19 126
e 19 128
e 19 129
e 19 130
e 19 131
e 19 136
e 19 137
e 19 138
e 19 139
e 19 140
e 20 21
e 20 22
e 20 26
e 20 27
e 20 28
e 20 29
e 20 30
e 20 31
e 20 33
e 20 34
e 20 36
e 20 40
e 20 42
e 20 45
e 20 46
e 20 50
e 20 54
e 20 56
e 20 57
e 20 59
e 20 60
e 20 63
e 20 67
e 20 68
e 20 70
e 20 78
e 20 79
e 20 83
e 20 86
e 20 88
e 20 89
e 20 95
e 20 96
e 20 97
e 20 99
e 20 101
e 20 103
e 20 104
e 20 106
e 20 108
e 20 109
e 20 112
e 20 116
e 20 118
e 20 120
e 20 123
e 20 124
e 20 126
e 20 130
e 20 131
e 20 132
e 20 134
e 20 135
e 20 136
e 20 138
e 20 140
e 21 41
e 21 44
e 21 45
e 21 46
e 21 48
e 21 51
e 21 54
e 21 55
e 21 56
e 21 57
e 21 58
e 21 60
e 21 61
e 21 65
e 21 66
e 21 67
e 21 68
e 21 69
e 21 70
e 21 72
e 21 74
e 21 78
e 21 79
e 21 80
e 21 82
e 21 83
e 21 84
e 21 85
e 21 86
e 21 88
e 21 89
e 21 93
e 21 94
e 21 98
e 21 99
e 21 101
e 21 102
e 21 104
e 21 105
e 21 108
e 21 109
e 21 110
e 21 116
e 21 117
e 21 118
e 21 119
e 21 120
e 21 121
e 21 122
e 21 136
e 21 138
e 21 139
e 22 42
e 22 43
e 22 45
e 22 46
e 22 47
e 22 49
e 22 51
e 22 54
e 22 58
e 22 59
e 22 60
e 22 61
e 22 63
e 22 64
e 22 66
e 22 67
e 22 71
e 22 75
e 22 76
e 22 77
e 22 78
e 22 80
e 22 83
e 22 84
e 22 87
e 22 90
e 22 91
e 22 92
e 22 93
e 22 94
e 22 99
e 22 100
e 22 104
e 22 106
e 22 108
e 22 109
e 22 110
e 22 113
e 22 115
e 22 117
e 22 118
e 22 121
e 22 124
e 22 126
e 22 127
e 22 129
e 22 130
e 22 132
e 22 133
e 22 135
e 22 136
e 22 138
e 23 41
e 23 48
e 23 51
e 23 53
e 23 54
e 23 55
e 23 57
e 23 58
e 23 59
e 23 60
e 23 62
e 23 63
e 23 67
e 23 68
e 23 69
e 23 71
e 23 72
e 23 73
e 23 74
e 23 82
e 23 85
e 23 89
e 23 90
e 23 91
e 23 93
e 23 94
e 23 96
e 23 101
e 23 103
e 23 106
e 23 107
e 23 109
e 23 114
e 23 116
e 23 117
e 23 118
e 23 119
e 23 122
e 23 124
e 23 127
e 23 130
e 23 131
e 23 132
e 23 134
e 23 138
e 24 43
e 24 46
e 24 47
e 24 48
e 24 50
e 24 51
e 24 52
e 24 53
e 24 55
e 24 56
e 24 57
e 24 58
e 24 59
e 24 61
e 24 66
e 24 67
e 24 68
e 24 69
e 24 71
e 24 74
e 24 75
e 24 76
e 24 78
e 24 80
e 24 81
e 24 82
e 24 83
e 24 86
e 24 87
e 24 88
e 24 92
e 24 93
e 24 94
e 24 97
e 24 98
e 24 99
e 24 102
e 24 105
e 24 112
e 24 114
e 24 116
e 24 119
e 24 122
e 24 124
e 24 125
e 24 126
e 24 128
e 24 130
e 24 131
e 24 132
e 24 139
e 25 42
e 25 45
e 25 46
e 25 48
e 25 49
e 25 50
e 25 51
e 25 53
e 25 55
e 25 57
e 25 60
e 25 61
e 25 63
e 25 64
e 25 67
e 25 68
e 25 69
e 25 71
e 25 72
e 25 73
e 25 74
e 25 75
e 25 77
e 25 81
e 25 83
e 25 84
e 25 85
e 25 87
e 25 88
e 25 89
e 25 90
e 25 93
e 25 94
e 25 96
e 25 98
e 25 99
e 25 102
e 25 103
e 25 104
e 25 106
e 25 110
e 25 112
e 25 114
e 25 117
e 25 118
e 25 120
e 25 121
e 25 124
e 25 125
e 25 127
e 25 128
e 25 132
e 25 133
e 25 134
e 25 135
e 25 136
e 25 140
e 26 41
e 26 42
e 26 45
e 26 48
e 26 50
e 26 53
e 26 54
e 26 56
e 26 58
e 26 60
e 26 62
e 26 63
e 26 64
e 26 65
e 26 67
e 26 69
e 26 71
e 26 73
e 26 74
e 26 80
e 26 82
e 26 83
e 26 84
e 26 85
e 26 86
e 26 88
e 26 90
e 26 91
e 26 93
e 26 94
e 26 98
e 26 99
e 26 102
e 26 104
e 26 106
e 26 107
e 26 108
e 26 109
e 26 110
e 26 111
e 26 113
e 26 114
e 26 116
e 26 117
e 26 121
e 26 125
e 26 126
e 26 127
e 26 129
e 26 130
e 26 135
e 26 137
e 26 139
e 27 42
e 27 43
e 27 45
e 27 46
e 27 47
e 27 48
e 27 49
e 27 51
e 27 52
e 27 53
e 27 55
e 27 56
e 27 57
e 27 60
e 27 61
e 27 62
e 27 63
e 27 68
e 27 70
e 27 71
e 27 72
e 27 74
e 27 77
e 27 78
e 27 80
e 27 82
e 27 83
e 27 86
e 27 92
e 27 93
e 27 94
e 27 95
e 27 97
e 27 99
e 27 102
e 27 103
e 27 105
e 27 107
e 27 110
e 27 112
e 27 114
e 27 118
e 27 119
e 27 120
e 27 123
e 27 124
e 27 125
e 27 126
e 27 127
e 27 128
e 27 129
e 27 130
e 27 132
e 27 134
e 27 135
e 27 137
e 27 138
e 27 139
e 27 140
e 28 43
e 28 45
e 28 46
e 28 47
e 28 50
e 28 51
e 28 52
e 28 54
e 28 56
e 28 58
e 28 62
e 28 63
e 28 65
e 28 67
e 28 73
e 28 74
e 28 75
e 28 76
e 28 82
e 28 83
e 28 84
e 28 86
e 28 90
e 28 92
e 28 94
e 28 95
e 28 96
e 28 97
e 28 99
e 28 100
e 28 103
e 28 105
e 28 106
e 28 109
e 28 113
e 28 117
e 28 119
e 28 120
e 28 123
e 28 124
e 28 131
e 28 135
e 28 136
e 28 137
e 29 42
e 29 43
e 29 44
e 29 46
e 29 49
e 29 50
e 29 51
e 29 52
e 29 56
e 29 57
e 29 59
e 29 60
e 29 62
e 29 64
e 29 65
e 29 66
e 29 68
e 29 69
e 29 71
e 29 73
e 29 75
e 29 76
e 29 79
e 29 80
e 29 82
e 29 83
e 29 86
e 29 88
e 29 89
e 29 90
e 29 91
e 29 94
e 29 95
e 29 97
e 29 100
e 29 101
e 29 103
e 29 105
e 29 106
e 29 107
e 29 109
e 29 110
e 29 111
e 29 114
e 29 115
e 29 119
e 29 121
e 29 122
e 29 126
e 29 127
e 29 130
e 29 133
e 29 135
e 29 138
e 29 140
e 30 41
e 30 42
e 30 43
e 30 44
e 30 48
e 30 52
e 30 53
e 30 57
e 30 58
e 30 63
e 30 65
e 30 67
e 30 71
e 30 75
e 30 76
e 30 80
e 30 81
e 30 86
e 30 87
e 30 89
e 30 90
e 30 91
e 30 93
e 30 95
e 30 103
e 30 106
e 30 107
e 30 108
e 30 109
e 30 112
e 30 115
e 30 117
e 30 120
e 30 121
e 30 124
e 30 125
e 30 127
e 30 128
e 30 131
e 30 140
e 31 41
e 31 44
e 31 46
e 31 48
e 31 49
e 31 50
e 31 52
e 31 53
e 31 54
e 31 58
e 31 59
e 31 60
e 31 61
e 31 66
e 31 69
e 31 71
e 31 72
e 31 73
e 31 74
e 31 75
e 31 76
e 31 77
e 31 79
e 31 80
e 31 82
e 31 83
e 31 85
e 31 88
e 31 89
e 31 90
e 31 92
e 31 97
e 31 101
e 31 102
e 31 104
e 31 106
e 31 108
e 31 111
e 31 113
e 31 114
e 31 117
e 31 123
e 31 125
e 31 127
e 31 128
e 31 129
e 31 133
e 31 136
e 31 138
e 32 42
e 32 44
e 32 45
e 32 46
e 32 47
e 32 52
e 32 57
e 32 58
e 32 60
e 32 63
e 32 64
e 32 69
e 32 75
e 32 78
e 32 79
e 32 81
e 32 83
e 32 86
e 32 89
e 32 90
e 32 96
e 32 97
e 32 98
e 32 101
e 32 102
e 32 103
e 32 104
e 32 105
e 32 106
e 32 107
e 32 109
e 32 110
e 32 112
e 32 115
e 32 116
e 32 121
e 32 123
e 32 124
e 32 125
e 32 126
e 32 129
e 32 131
e 32 133
e 32 136
e 32 137
e 32 138
e 33 41
e 33 43
e 33 46
e 33 47
e 33 48
e 33 51
e 33 52
e 33 55
e 33 57
e 33 58
e 33 60
e 33 62
e 33 63
e 33 64
e 33 67
e 33 70
e 33 71
e 33 72
e 33 74
e 33 75
e 33 78
e 33 79
e 33 81
e 33 83
e 33 84
e 33 87
e 33 91
e 33 92
e 33 94
e 33 96
e 33 97
e 33 100
e 33 102
e 33 103
e 33 108
e 33 110
e 33 111
e 33 112
e 33 113
e 33 116
e 33 117
e 33 119
e 33 122
e 33 123
e 33 124
e 33 125
e 33 127
e 33 130
e 33 131
e 33 133
e 33 136
e 33 138
e 33 139
e 34 42
e 34 44
e 34 46
e 34 47
e 34 50
e 34 53
e 34 57
e 34 58
e 34 63
e 34 64
e 34 65
e 34 66
e 34 68
e 34 69
e 34 71
e 34 74
e 34 75
e 34 77
e 34 79
e 34 80
e 34 82
e 34 87
e 34 89
e 34 92
e 34 95
e 34 96
e 34 97
e 34 98
e 34 101
e 34 102
e 34 104
e 34 107
e 34 108
e 34 109
e 34 110
e 34 112
e 34 114
e 34 117
e 34 119
e 34 120
e 34 124
e 34 125
e 34 126
e 34 127
e 34 130
e 34 132
e 34 134
e 34 135
e 34 136
e 34 138
e 34 140
e 35 42
e 35 43
e 35 45
e 35 46
e 35 47
e 35 52
e 35 53
e 35 56
e 35 62
e 35 63
e 35 64
e 35 72
e 35 74
e 35 77
e 35 78
e 35 80
e 35 81
e 35 89
e 35 90
e 35 91
e 35 92
e 35 93
e 35 95
e 35 96
e 35 101
e 35 102
e 35 105
e 35 113
e 35 118
e 35 119
e 35 123
e 35 127
e 35 129
e 35 132
e 35 133
e 35 137
e 35 138
e 35 140
e 36 43
e 36 45
e 36 48
e 36 49
e 36 52
e 36 53
e 36 54
e 36 55
e 36 57
e 36 58
e 36 60
e 36 61
e 36 62
e 36 64
e 36 65
e 36 68
e 36 72
e 36 73
e 36 76
e 36 77
e 36 78
e 36 80
e 36 81
e 36 83
e 36 84
e 36 87
e 36 88
e 36 91
e 36 92
e 36 93
e 36 94
e 36 95
e 36 96
e 36 100
e 36 102
e 36 104
e 36 106
e 36 113
e 36 114
e 36 116
e 36 119
e 36 120
e 36 124
e 36 125
e 36 127
e 36 128
e 36 129
e 36 130
e 36 134
e 36 137
e 36 138
e 37 42
e 37 43
e 37 46
e 37 47
e 37 49
e 37 50
e 37 53
e 37 55
e 37 56
e 37 57
e 37 61
e 37 62
e 37 63
e 37 64
e 37 65
e 37 69
e 37 70
e 37 71
e 37 73
e 37 74
e 37 76
e 37 79
e 37 80
e 37 81
e 37 83
e 37 85
e 37 86
e 37 90
e 37 91
e 37 92
e 37 95
e 37 98
e 37 102
e 37 103
e 37 104
e 37 107
e 37 108
e 37 109
e 37 112
e 37 113
e 37 115
e 37 116
e 37 117
e 37 119
e 37 120
e 37 121
e 37 123
e 37 125
e 37 126
e 37 127
e 37 128
e 37 129
e 37 131
e 37 132
e 37 133
e 37 135
e 37 138
e 37 139
e 38 44
e 38 46
e 38 49
e 38 50
e 38 51
e 38 52
e 38 56
e 38 57
e 38 62
e 38 64
e 38 66
e 38 71
e 38 72
e 38 73
e 38 74
e 38 75
e 38 79
e 38 80
e 38 81
e 38 82
e 38 87
e 38 88
e 38 89
e 38 90
e 38 96
e 38 97
e 38 98
e 38 99
e 38 103
e 38 105
e 38 110
e 38 111
e 38 112
e 38 113
e 38 114
e 38 115
e 38 116
e 38 117
e 38 120
e 38 123
e 38 124
e 38 125
e 38 126
e 38 128
e 38 131
e 38 135
e 38 140
e 39 43
e 39 44
e 39 45
e 39 46
e 39 47
e 39 48
e 39 49
e 39 50
e 39 51
e 39 56
e 39 58
e 39 62
e 39 64
e 39 69
e 39 70
e 39 71
e 39 75
e 39 78
e 39 84
e 39 86
e 39 87
e 39 89
e 39 90
e 39 92
e 39 94
e 39 95
e 39 97
e 39 100
e 39 101
e 39 102
e 39 105
e 39 107
e 39 108
e 39 109
e 39 112
e 39 113
e 39 116
e 39 117
e 39 119
e 39 123
e 39 124
e 39 125
e 39 126
e 39 127
e 39 130
e 39 132
e 39 134
e 39 136
e 39 138
e 39 139
e 39 140
e 40 42
e 40 47
e 40 48
e 40 49
e 40 52
e 40 53
e 40 55
e 40 59
e 40 62
e 40 64
e 40 66
e 40 69
e 40 72
e 40 77
e 40 78
e 40 79
e 40 80
e 40 84
e 40 85
e 40 88
e 40 95
e 40 96
e 40 97
e 40 98
e 40 101
e 40 103
e 40 106
e 40 107
e 40 108
e 40 111
e 40 113
e 40 114
e 40 116
e 40 117
e 40 119
e 40 122
e 40 124
e 40 125
e 40 129
e 40 132
e 40 134
e 40 135
e 40 137
e 40 140
e 41 61
e 41 63
e 41 65
e 41 72
e 41 75
e 41 76
e 41 78
e 41 80
e 41 81
e 41 83
e 41 85
e 41 88
e 41 91
e 41 93
e 41 96
e 41 101
e 41 103
e 41 105
e 41 106
e 41 108
e 41 110
e 41 111
e 41 112
e 41 114
e 41 115
e 41 118
e 41 119
e 41 127
e 41 130
e 41 131
e 41 132
e 41 133
e 41 134
e 41 135
e 41 136
e 41 138
e 42 62
e 42 64
e 42 68
e 42 69
e 42 70
e 42 71
e 42 72
e 42 77
e 42 78
e 42 79
e 42 80
e 42 81
e 42 84
e 42 85
e 42 86
e 42 88
e 42 91
e 42 92
e 42 93
e 42 98
e 42 104
e 42 107
e 42 111
e 42 123
e 42 124
e 42 127
e 42 130
e 42 132
e 42 133
e 42 134
e 42 136
e 42 139
e 42 140
e 43 63
e 43 66
e 43 67
e 43 71
e 43 72
e 43 73
e 43 74
e 43 76
e 43 78
e 43 79
e 43 82
e 43 83
e 43 88
e 43 89
e 43 90
e 43 93
e 43 95
e 43 97
e 43 98
e 43 101
e 43 103
e 43 104
e 43 105
e 43 109
e 43 111
e 43 113
e 43 115
e 43 116
e 43 117
e 43 119
e 43 122
e 43 124
e 43 125
e 43 128
e 43 132
e 43 133
e 43 134
e 43 135
e 43 136
e 43 137
e 43 138
e 43 139
e 44 63
e 44 64
e 44 65
e 44 66
e 44 67
e 44 69
e 44 71
e 44 72
e 44 74
e 44 76
e 44 77
e 44 79
e 44 80
e 44 81
e 44 82
e 44 83
e 44 86
e 44 87
e 44 89
e 44 90
e 44 93
e 44 94
e 44 95
e 44 96
e 44 97
e 44 100
e 44 101
e 44 104
e 44 105
e 44 106
e 44 108
e 44 109
e 44 110
e 44 112
e 44 113
e 44 115
e 44 117
e 44 118
e 44 120
e 44 122
e 44 124
e 44 125
e 44 128
e 44 129
e 44 132
e 44 133
e 44 136
e 44 137
e 44 138
e 45 61
e 45 64
e 45 66
e 45 68
e 45 71
e 45 72
e 45 74
e 45 75
e 45 77
e 45 78
e 45 81
e 45 85
e 45 88
e 45 91
e 45 92
e 45 94
e 45 96
e 45 98
e 45 99
e 45 102
e 45 103
e 45 104
e 45 105
e 45 106
e 45 109
e 45 111
e 45 112
e 45 114
e 45 115
e 45 117
e 45 118
e 45 119
e 45 122
e 45 123
e 45 124
e 45 129
e 45 130
e 45 131
e 45 132
e 45 135
e 45 136
e 45 139
e 45 140
e 46 68
e 46 69
e 46 70
e 46 71
e 46 73
e 46 75
e 46 77
e 46 78
e 46 79
e 46 81
e 46 82
e 46 84
e 46 85
e 46 87
e 46 88
e 46 89
e 46 90
e 46 91
e 46 94
e 46 95
e 46 96
e 46 97
e 46 98
e 46 99
e 46 100
e 46 103
e 46 108
e 46 109
e 46 110
e 46 113
e 46 114
e 46 116
e 46 117
e 46 118
e 46 119
e 46 123
e 46 126
e 46 128
e 46 131
e 46 135
e 46 137
e 46 138
e 47 61
e 47 62
e 47 63
e 47 64
e 47 65
e 47 68
e 47 69
e 47 72
e 47 74
e 47 75
e 47 76
e 47 81
e 47 82
e 47 84
e 47 87
e 47 88
e 47 89
e 47 90
e 47 91
e 47 92
e 47 93
e 47 97
e 47 98
e 47 99
e 47 100
e 47 101
e 47 103
e 47 104
e 47 106
e 47 108
e 47 110
e 47 114
e 47 119
e 47 121
e 47 123
e 47 124
e 47 126
e 47 127
e 47 128
e 47 131
e 47 132
e 47 133
e 47 134
e 47 135
e 47 136
e 47 138
e 47 139
e 47 140
e 48 61
e 48 64
e 48 65
e 48 69
e 48 70
e 48 71
e 48 72
e 48 73
e 48 74
e 48 80
e 48 83
e 48 84
e 48 85
e 48 87
e 48 88
e 48 89
e 48 90
e 48 93
e 48 94
e 48 96
e 48 99
e 48 100
e 48 101
e 48 102
e 48 104
e 48 105
e 48 107
e 48 109
e 48 110
e 48 117
e 48 119
e 48 121
e 48 124
e 48 125
e 48 128
e 48 130
e 48 133
e 48 135
e 48 136
e 48 137
e 48 139
e 48 140
e 49 62
e 49 63
e 49 66
e 49 68
e 49 70
e 49 71
e 49 74
e 49 76
e 49 78
e 49 80
e 49 82
e 49 84
e 49 85
e 49 86
e 49 87
e 49 88
e 49 89
e 49 90
e 49 93
e 49 94
e 49 98
e 49 100
e 49 103
e 49 104
e 49 106
e 49 108
e 49 109
e 49 111
e 49 113
e 49 114
e 49 116
e 49 117
e 49 119
e 49 121
e 49 122
e 49 123
e 49 124
e 49 125
e 49 126
e 49 127
e 49 129
e 49 130
e 49 132
e 49 133
e 49 134
e 49 136
e 49 139
e 50 62
e 50 65
e 50 68
e 50 69
e 50 70
e 50 73
e 50 74
e 50 75
e 50 76
e 50 81
e 50 83
e 50 84
e 50 85
e 50 86
e 50 87
e 50 88
e 50 91
e 50 93
e 50 95
e 50 96
e 50 97
e 50 100
e 50 101
e 50 105
e 50 106
e 50 108
e 50 112
e 50 114
e 50 118
e 50 122
e 50 123
e 50 124
e 50 126
e 50 129
e 50 130
e 50 131
e 50 132
e 50 133
e 50 134
e 50 137
e 50 138
e 50 139
e 51 61
e 51 63
e 51 64
e 51 67
e 51 68
e 51 69
e 51 71
e 51 72
e 51 73
e 51 75
e 51 76
e 51 77
e 51 78
e 51 80
e 51 83
e 51 84
e 51 85
e 51 87
e 51 91
e 51 94
e 51 97
e 51 98
e 51 99
e 51 100
e 51 104
e 51 107
e 51 108
e 51 110
e 51 112
e 51 113
e 51 114
e 51 119
e 51 121
e 51 123
e 51 124
e 51 127
e 51 129
e 51 131
e 51 133
e 51 136
e 51 137
e 51 139
e 52 62
e 52 65
e 52 66
e 52 68
e 52 69
e 52 70
e 52 71
e 52 72
e 52 73
e 52 74
e 52 77
e 52 78
e 52 81
e 52 82
e 52 83
e 52 86
e 52 91
e 52 92
e 52 95
e 52 99
e 52 101
e 52 103
e 52 107
e 52 108
e 52 111
e 52 115
e 52 119
e 52 121
e 52 126
e 52 127
e 52 131
e 52 133
e 52 134
e 52 137
e 52 138
e 53 61
e 53 62
e 53 70
e 53 73
e 53 75
e 53 77
e 53 80
e 53 82
e 53 85
e 53 86
e 53 89
e 53 90
e 53 92
e 53 93
e 53 94
e 53 96
e 53 97
e 53 98
e 53 102
e 53 108
e 53 112
e 53 113
e 53 114
e 53 115
e 53 119
e 53 121
e 53 122
e 53 124
e 53 126
e 53 128
e 53 130
e 53 131
e 53 133
e 53 134
e 53 135
e 53 136
e 53 137
e 54 62
e 54 64
e 54 65
e 54 66
e 54 68
e 54 69
e 54 71
e 54 72
e 54 74
e 54 77
e 54 79
e 54 83
e 54 87
e 54 89
e 54 90
e 54 92
e 54 94
e 54 97
e 54 99
e 54 101
e 54 102
e 54 104
e 54 105
e 54 106
e 54 109
e 54 115
e 54 116
e 54 118
e 54 120
e 54 121
e 54 123
e 54 125
e 54 126
e 54 127
e 54 129
e 54 131
e 54 132
e 54 134
e 54 135
e 54 136
e 55 63
e 55 64
e 55 70
e 55 72
e 55 74
e 55 75
e 55 79
e 55 80
e 55 82
e 55 83
e 55 84
e 55 85
e 55 86
e 55 88
e 55 90
e 55 93
e 55 95
e 55 99
e 55 102
e 55 104
e 55 106
e 55 107
e 55 109
e 55 112
e 55 114
e 55 116
e 55 118
e 55 121
e 55 122
e 55 126
e 55 127
e 55 133
e 55 135
e 55 138
e 55 139
e 56 61
e 56 62
e 56 64
e 56 67
e 56 68
e 56 70
e 56 73
e 56 74
e 56 77
e 56 78
e 56 81
e 56 82
e 56 83
e 56 85
e 56 88
e 56 90
e 56 92
e 56 93
e 56 94
e 56 95
e 56 97
e 56 99
e 56 100
e 56 101
e 56 102
e 56 107
e 56 109
e 56 110
e 56 111
e 56 113
e 56 116
e 56 119
e 56 124
e 56 126
e 56 127
e 56 128
e 56 129
e 56 132
e 56 134
e 56 137
e 56 138
e 57 61
e 57 63
e 57 67
e 57 71
e 57 72
e 57 74
e 57 77
e 57 78
e 57 79
e 57 80
e 57 81
e 57 83
e 57 84
e 57 86
e 57 87
e 57 88
e 57 89
e 57 92
e 57 94
e 57 98
e 57 99
e 57 100
e 57 107
e 57 110
e 57 112
e 57 116
e 57 117
e 57 124
e 57 125
e 57 130
e 57 131
e 57 133
e 57 136
e 57 137
e 57 139
e 57 140
e 58 61
e 58 63
e 58 64
e 58 66
e 58 67
e 58 68
e 58 71
e 58 72
e 58 75
e 58 78
e 58 79
e 58 80
e 58 83
e 58 86
e 58 88
e 58 92
e 58 93
e 58 97
e 58 99
e 58 102
e 58 103
e 58 104
e 58 109
e 58 110
e 58 115
e 58 117
e 58 119
e 58 126
e 58 131
e 58 132
e 58 135
e 58 137
e 58 138
e 58 140
e 59 61
e 59 63
e 59 69
e 59 75
e 59 76
e 59 77
e 59 79
e 59 82
e 59 83
e 59 84
e 59 90
e 59 91
e 59 96
e 59 98
e 59 101
e 59 102
e 59 106
e 59 108
e 59 114
e 59 118
e 59 119
e 59 121
e 59 123
e 59 125
e 59 127
e 59 128
e 59 131
e 59 132
e 59 136
e 60 61
e 60 62
e 60 63
e 60 68
e 60 72
e 60 73
e 60 85
e 60 90
e 60 91
e 60 92
e 60 96
e 60 98
e 60 99
e 60 100
e 60 101
e 60 104
e 60 105
e 60 108
e 60 109
e 60 111
e 60 116
e 60 117
e 60 118
e 60 119
e 60 123
e 60 124
e 60 128
e 60 134
e 60 135
e 60 138
e 60 139
e 61 83
e 61 85
e 61 90
e 61 91
e 61 92
e 61 93
e 61 95
e 61 96
e 61 98
e 61 99
e 61 101
e 61 102
e 61 103
e 61 105
e 61 107
e 61 110
e 61 111
e 61 112
e 61 115
e 61 116
e 61 120
e 61 123
e 61 125
e 61 127
e 61 128
e 61 130
e 61 131
e 61 133
e 61 134
e 61 136
e 61 137
e 61 138
e 62 83
e 62 85
e 62 88
e 62 89
e 62 91
e 62 92
e 62 94
e 62 95
e 62 96
e 62 97
e 62 101
e 62 102
e 62 103
e 62 105
e 62 106
e 62 114
e 62 115
e 62 116
e 62 118
e 62 120
e 62 121
e 62 123
e 62 124
e 62 132
e 62 133
e 62 134
e 62 136
e 62 137
e 62 138
e 62 139
e 62 140
e 63 81
e 63 84
e 63 85
e 63 87
e 63 92
e 63 93
e 63 95
e 63 98
e 63 99
e 63 100
e 63 102
e 63 103
e 63 105
e 63 108
e 63 109
e 63 110
e 63 111
e 63 114
e 63 115
e 63 117
e 63 119
e 63 121
e 63 127
e 63 130
e 63 132
e 63 133
e 63 138
e 63 140
e 64 82
e 64 84
e 64 88
e 64 89
e 64 91
e 64 93
e 64 94
e 64 96
e 64 98
e 64 99
e 64 101
e 64 102
e 64 103
e 64 104
e 64 105
e 64 106
e 64 108
e 64 109
e 64 112
e 64 115
e 64 121
e 64 122
e 64 123
e 64 124
e 64 127
e 64 128
e 64 130
e 64 131
e 64 134
e 64 136
e 64 137
e 64 138
e 64 139
e 64 140
e 65 83
e 65 84
e 65 85
e 65 86
e 65 87
e 65 96
e 65 97
e 65 98
e 65 103
e 65 106
e 65 107
e 65 109
e 65 111
e 65 113
e 65 117
e 65 118
e 65 120
e 65 121
e 65 122
e 65 123
e 65 124
e 65 125
e 65 131
e 65 135
e 65 136
e 65 137
e 65 138
e 65 140
e 66 82
e 66 83
e 66 85
e 66 88
e 66 89
e 66 91
e 66 95
e 66 98
e 66 101
e 66 102
e 66 104
e 66 108
e 66 109
e 66 112
e 66 113
e 66 116
e 66 117
e 66 118
e 66 119
e 66 120
e 66 121
e 66 122
e 66 123
e 66 126
e 66 128
e 66 129
e 66 130
e 66 132
e 66 133
e 66 134
e 66 135
e 66 136
e 66 138
e 67 82
e 67 84
e 67 86
e 67 87
e 67 88
e 67 91
e 67 99
e 67 100
e 67 101
e 67 102
e 67 105
e 67 109
e 67 116
e 67 119
e 67 125
e 67 127
e 67 130
e 67 134
e 67 135
e 67 136
e 68 81
e 68 83
e 68 84
e 68 88
e 68 93
e 68 95
e 68 97
e 68 99
e 68 102
e 68 103
e 68 104
e 68 107
e 68 110
e 68 112
e 68 114
e 68 116
e 68 117
e 68 118
e 68 121
e 68 122
e 68 124
e 68 125
e 68 126
e 68 129
e 68 130
e 68 131
e 68 132
e 68 135
e 68 138
e 68 140
e 69 84
e 69 86
e 69 87
e 69 89
e 69 92
e 69 94
e 69 96
e 69 97
e 69 98
e 69 100
e 69 101
e 69 103
e 69 108
e 69 109
e 69 110
e 69 111
e 69 113
e 69 115
e 69 116
e 69 118
e 69 121
e 69 123
e 69 125
e 69 126
e 69 128
e 69 130
e 69 131
e 69 132
e 69 133
e 69 135
e 69 139
e 70 85
e 70 86
e 70 88
e 70 89
e 70 90
e 70 91
e 70 93
e 70 94
e 70 96
e 70 97
e 70 100
e 70 101
e 70 104
e 70 105
e 70 108
e 70 110
e 70 111
e 70 112
e 70 113
e 70 114
e 70 116
e 70 117
e 70 118
e 70 119
e 70 120
e 70 121
e 70 124
e 70 125
e 70 127
e 70 130
e 70 131
e 70 138
e 70 139
e 71 81
e 71 83
e 71 84
e 71 85
e 71 86
e 71 95
e 71 97
e 71 98
e 71 99
e 71 100
e 71 102
e 71 103
e 71 105
e 71 106
e 71 107
e 71 108
e 71 109
e 71 110
e 71 112
e 71 113
e 71 114
e 71 115
e 71 118
e 71 124
e 71 128
e 71 132
e 71 133
e 71 134
e 71 135
e 72 82
e 72 83
e 72 84
e 72 88
e 72 89
e 72 92
e 72 93
e 72 94
e 72 95
e 72 97
e 72 98
e 72 101
e 72 102
e 72 104
e 72 105
e 72 110
e 72 116
e 72 117
e 72 121
e 72 122
e 72 123
e 72 125
e 72 127
e 72 128
e 72 129
e 72 131
e 72 132
e 72 133
e 72 134
e 72 137
e 72 140
e 73 85
e 73 86
e 73 88
e 73 91
e 73 92
e 73 96
e 73 98
e 73 99
e 73 103
e 73 105
e 73 107
e 73 108
e 73 109
e 73 112
e 73 113
e 73 116
e 73 117
e 73 118
e 73 120
e 73 121
e 73 124
e 73 125
e 73 128
e 73 130
e 73 131
e 73 132
e 73 133
e 73 138
e 73 139
e 73 140
e 74 81
e 74 84
e 74 86
e 74 89
e 74 91
e 74 92
e 74 96
e 74 98
e 74 101
e 74 102
e 74 103
e 74 104
e 74 106
e 74 110
e 74 111
e 74 112
e 74 116
e 74 119
e 74 120
e 74 121
e 74 122
e 74 123
e 74 124
e 74 125
e 74 126
e 74 127
e 74 129
e 74 132
e 74 135
e 74 137
e 74 140
e 75 82
e 75 83
e 75 85
e 75 86
e 75 91
e 75 92
e 75 93
e 75 96
e 75 99
e 75 101
e 75 102
e 75 103
e 75 104
e 75 106
e 75 109
e 75 110
e 75 112
e 75 113
e 75 114
e 75 117
e 75 120
e 75 124
e 75 126
e 75 129
e 75 131
e 75 132
e 75 137
e 75 139
e 75 140
e 76 81
e 76 83
e 76 85
e 76 86
e 76 87
e 76 90
e 76 93
e 76 94
e 76 99
e 76 101
e 76 102
e 76 108
e 76 109
e 76 110
e 76 117
e 76 118
e 76 123
e 76 124
e 76 126
e 76 127
e 76 131
e 76 132
e 76 133
e 76 134
e 76 135
e 76 136
e 76 137
e 76 139
e 77 81
e 77 82
e 77 83
e 77 84
e 77 86
e 77 91
e 77 92
e 77 94
e 77 96
e 77 97
e 77 98
e 77 100
e 77 101
e 77 105
e 77 107
e 77 108
e 77 109
e 77 110
e 77 111
e 77 112
e 77 117
e 77 118
e 77 120
e 77 121
e 77 124
e 77 125
e 77 126
e 77 131
e 77 132
e 77 133
e 77 135
e 77 136
e 77 137
e 77 138
e 77 140
e 78 82
e 78 84
e 78 85
e 78 88
e 78 90
e 78 91
e 78 95
e 78 96
e 78 98
e 78 99
e 78 100
e 78 105
e 78 106
e 78 107
e 78 109
e 78 110
e 78 114
e 78 116
e 78 117
e 78 121
e 78 123
e 78 126
e 78 129
e 78 130
e 78 131
e 78 136
e 79 81
e 79 82
e 79 87
e 79 89
e 79 91
e 79 92
e 79 97
e 79 99
e 79 105
e 79 106
e 79 107
e 79 108
e 79 110
e 79 111
e 79 112
e 79 113
e 79 116
e 79 120
e 79 123
e 79 125
e 79 126
e 79 128
e 79 129
e 79 130
e 79 131
e 79 132
e 79 133
e 79 134
e 79 136
e 79 137
e 79 138
e 79 139
e 79 140
e 80 81
e 80 82
e 80 86
e 80 89
e 80 92
e 80 93
e 80 96
e 80 98
e 80 100
e 80 102
e 80 105
e 80 106
e 80 110
e 80 111
e 80 115
e 80 116
e 80 117
e 80 120
e 80 123
e 80 124
e 80 125
e 80 127
e 80 128
e 80 129
e 80 130
e 80 132
e 80 133
e 80 134
e 80 137
e 80 140
e 81 105
e 81 107
e 81 110
e 81 112
e 81 114
e 81 117
e 81 118
e 81 126
e 81 131
e 81 133
e 81 134
e 81 135
e 81 136
e 81 138
e 81 140
e 82 102
e 82 106
e 82 107
e 82 108
e 82 109
e 82 110
e 82 113
e 82 116
e 82 117
e 82 118
e 82 119
e 82 120
e 82 122
e 82 124
e 82 125
e 82 131
e 82 132
e 82 135
e 82 138
e 82 139
e 83 104
e 83 105
e 83 108
e 83 109
e 83 112
e 83 114
e 83 116
e 83 119
e 83 120
e 83 121
e 83 122
e 83 123
e 83 124
e 83 125
e 83 128
e 83 129
e 83 135
e 84 101
e 84 102
e 84 104
e 84 105
e 84 107
e 84 108
e 84 109
e 84 110
e 84 114
e 84 119
e 84 123
e 84 125
e 84 127
e 84 128
e 84 130
e 84 132
e 84 133
e 84 138
e 84 139
e 84 140
e 85 101
e 85 103
e 85 106
e 85 107
e 85 109
e 85 111
e 85 112
e 85 113
e 85 115
e 85 116
e 85 117
e 85 118
e 85 119
e 85 120
e 85 122
e 85 123
e 85 124
e 85 127
e 85 128
e 85 129
e 85 130
e 85 131
e 85 132
e 85 133
e 85 134
e 85 139
e 86 101
e 86 102
e 86 103
e 86 105
e 86 106
e 86 107
e 86 109
e 86 112
e 86 116
e 86 122
e 86 123
e 86 124
e 86 125
e 86 127
e 86 130
e 86 131
e 86 133
e 86 135
e 86 136
e 86 138
e 87 103
e 87 106
e 87 107
e 87 109
e 87 110
e 87 116
e 87 118
e 87 120
e 87 121
e 87 122
e 87 123
e 87 128
e 87 132
e 87 133
e 87 138
e 88 102
e 88 103
e 88 104
e 88 106
e 88 107
e 88 109
e 88 110
e 88 112
e 88 115
e 88 116
e 88 119
e 88 120
e 88 122
e 88 124
e 88 125
e 88 127
e 88 131
e 88 133
e 88 134
e 88 135
e 88 136
e 88 137
e 88 138
e 88 140
e 89 105
e 89 107
e 89 109
e 89 111
e 89 113
e 89 115
e 89 117
e 89 119
e 89 121
e 89 125
e 89 126
e 89 127
e 89 129
e 89 131
e 89 133
e 89 136
e 89 137
e 89 138
e 89 140
e 90 102
e 90 105
e 90 109
e 90 110
e 90 111
e 90 115
e 90 117
e 90 118
e 90 120
e 90 123
e 90 124
e 90 125
e 90 126
e 90 129
e 90 132
e 90 135
e 90 136
e 90 138
e 90 140
e 91 106
e 91 109
e 91 110
e 91 113
e 91 115
e 91 116
e 91 119
e 91 120
e 91 123
e 91 124
e 91 126
e 91 128
e 91 129
e 91 130
e 91 131
e 91 132
e 91 133
e 91 136
e 91 138
e 91 140
e 92 101
e 92 103
e 92 104
e 92 105
e 92 106
e 92 107
e 92 108
e 92 109
e 92 110
e 92 111
e 92 113
e 92 115
e 92 118
e 92 120
e 92 121
e 92 122
e 92 124
e 92 125
e 92 131
e 92 132
e 92 133
e 92 137
e 92 139
e 93 101
e 93 102
e 93 103
e 93 107
e 93 109
e 93 110
e 93 113
e 93 119
e 93 121
e 93 123
e 93 124
e 93 125
e 93 127
e 93 131
e 93 133
e 93 134
e 93 138
e 93 140
e 94 101
e 94 102
e 94 112
e 94 115
e 94 120
e 94 124
e 94 126
e 94 127
e 94 128
e 94 129
e 94 132
e 94 136
e 94 138
e 94 139
e 94 140
e 95 101
e 95 102
e 95 103
e 95 104
e 95 105
e 95 106
e 95 107
e 95 108
e 95 113
e 95 114
e 95 120
e 95 122
e 95 123
e 95 125
e 95 127
e 95 128
e 95 130
e 95 132
e 95 133
e 95 134
e 95 135
e 95 136
e 95 137
e 95 138
e 95 140
e 96 101
e 96 102
e 96 104
e 96 105
e 96 106
e 96 107
e 96 108
e 96 110
e 96 111
e 96 113
e 96 114
e 96 118
e 96 119
e 96 124
e 96 126
e 96 130
e 96 132
e 96 136
e 97 101
e 97 102
e 97 103
e 97 105
e 97 106
e 97 109
e 97 110
e 97 111
e 97 112
e 97 114
e 97 115
e 97 116
e 97 117
e 97 121
e 97 122
e 97 127
e 97 128
e 97 129
e 97 132
e 97 134
e 97 136
e 97 139
e 97 140
e 98 101
e 98 103
e 98 104
e 98 105
e 98 106
e 98 110
e 98 118
e 98 119
e 98 120
e 98 123
e 98 127
e 98 128
e 98 129
e 98 132
e 98 133
e 98 136
e 98 137
e 98 140
e 99 101
e 99 102
e 99 103
e 99 105
e 99 106
e 99 107
e 99 109
e 99 111
e 99 115
e 99 119
e 99 120
e 99 121
e 99 122
e 99 127
e 99 128
e 99 129
e 99 132
e 99 133
e 99 134
e 99 139
e 100 107
e 100 113
e 100 116
e 100 118
e 100 120
e 100 122
e 100 123
e 100 124
e 100 125
e 100 127
e 100 128
e 100 129
e 100 130
e 100 136
e 100 137
e 100 138
e 100 139
e 101 122
e 101 124
e 101 125
e 101 126
e 101 127
e 101 131
e 101 132
e 101 133
e 101 135
e 101 136
e 101 137
e 101 140
e 102 121
e 102 125
e 102 127
e 102 129
e 102 133
e 102 134
e 102 135
e 102 136
e 102 137
e 102 139
e 102 140
e 103 122
e 103 126
e 103 132
e 103 133
e 103 137
e 103 139
e 103 140
e 104 122
e 104 123
e 104 125
e 104 126
e 104 128
e 104 129
e 104 130
e 104 133
e 104 134
e 104 136
e 104 137
e 104 139
e 104 140
e 105 121
e 105 124
e 105 126
e 105 129
e 105 130
e 105 134
e 105 138
e 105 140
e 106 122
e 106 125
e 106 126
e 106 127
e 106 134
e 106 136
e 106 138
e 107 123
e 107 124
e 107 133
e 107 134
e 107 137
e 107 139
e 107 140
e 108 121
e 108 122
e 108 124
e 108 128
e 108 129
e 108 131
e 108 134
e 108 135
e 108 137
e 108 139
e 108 140
e 109 121
e 109 122
e 109 123
e 109 125
e 109 126
e 109 128
e 109 129
e 109 133
e 109 135
e 109 137
e 109 139
e 109 140
e 110 122
e 110 123
e 110 124
e 110 126
e 110 127
e 110 133
e 110 136
e 110 138
e 110 140
e 111 122
e 111 124
e 111 126
e 111 129
e 111 130
e 111 131
e 111 132
e 111 133
e 111 136
e 111 137
e 111 138
e 112 121
e 112 123
e 112 125
e 112 126
e 112 128
e 112 130
e 112 131
e 112 132
e 112 134
e 112 135
e 112 138
e 112 139
e 112 140
e 113 121
e 113 122
e 113 125
e 113 127
e 113 128
e 113 130
e 113 132
e 113 133
e 113 134
e 113 138
e 113 140
e 114 122
e 114 123
e 114 125
e 114 128
e 114 129
e 114 131
e 114 132
e 114 133
e 114 134
e 114 136
e 114 137
e 114 139
e 115 122
e 115 123
e 115 124
e 115 128
e 115 129
e 115 130
e 115 135
e 115 138
e 115 139
e 115 140
e 116 122
e 116 123
e 116 126
e 116 127
e 116 128
e 116 130
e 116 131
e 116 133
e 116 134
e 116 135
e 116 138
e 116 140
e 117 121
e 117 122
e 117 125
e 117 126
e 117 127
e 117 129
e 117 131
e 117 132
e 117 136
e 117 138
e 118 121
e 118 122
e 118 126
e 118 128
e 118 129
e 118 131
e 118 132
e 118 133
e 118 134
e 118 135
e 118 138
e 118 139
e 119 121
e 119 122
e 119 123
e 119 124
e 119 125
e 119 126
e 119 127
e 119 128
e 119 129
e 119 132
e 119 133
e 119 135
e 119 137
e 119 138
e 119 139
e 120 123
e 120 125
e 120 128
e 120 130
e 120 132
e 120 133
e 120 134
e 120 137
e 120 139
