c FILE: balanced_graphs/balanced_140_7_25_2.col
c
c DESCRIPTION: Random balanced graph, 140 nodes,
c              partitions 7
c              edge probability 0.25
c
c G(140,7,0.25) graph
c number of vertices : 140
c max number of edges: 9730
c edge probability   : 0.25
c
c           Graph Stats
c number of vertices  : 140
c nonisolated vertices: 140
c number of edges     : 2101
c edge density        : 0.2159
c max degree          : 42
c avg degree          : 30.01
c min degree          : 20
c
p col 140 2101
e 1 31
e 1 33
e 1 36
e 1 39
e 1 40
e 1 42
e 1 50
e 1 67
e 1 70
e 1 72
e 1 73
e 1 79
e 1 80
e 1 84
e 1 87
e 1 90
e 1 95
e 1 100
e 1 105
e 1 115
e 1 123
e 1 127
e 1 128
e 1 137
e 1 138
e 2 24
e 2 26
e 2 31
e 2 37
e 2 39
e 2 45
e 2 47
e 2 52
e 2 58
e 2 60
e 2 61
e 2 63
e 2 70
e 2 78
e 2 81
e 2 85
e 2 87
e 2 97
e 2 98
e 2 100
e 2 111
e 2 112
e 2 115
e 2 120
e 2 121
e 2 126
e 2 133
e 2 136
e 3 21
e 3 23
e 3 28
e 3 44
e 3 45
e 3 46
e 3 49
e 3 51
e 3 54
e 3 62
e 3 68
e 3 71
e 3 72
e 3 76
e 3 99
e 3 100
e 3 109
e 3 113
e 3 124
e 3 134
e 3 137
e 4 21
e 4 22
e 4 23
e 4 24
e 4 31
e 4 43
e 4 45
e 4 46
e 4 59
e 4 62
e 4 68
e 4 71
e 4 73
e 4 78
e 4 79
e 4 84
e 4 85
e 4 91
e 4 94
e 4 96
e 4 100
e 4 106
e 4 111
e 4 115
e 4 119
e 4 123
e 4 127
e 4 128
e 4 139
e 5 23
e 5 25
e 5 27
e 5 28
e 5 30
e 5 37
e 5 40
e 5 42
e 5 47
e 5 48
e 5 49
e 5 54
e 5 59
e 5 61
e 5 65
e 5 66
e 5 77
e 5 78
e 5 86
e 5 91
e 5 100
e 5 108
e 5 116
e 5 117
e 5 137
e 6 25
e 6 31
e 6 33
e 6 36
e 6 39
e 6 46
e 6 67
e 6 68
e 6 72
e 6 73
e 6 75
e 6 77
e 6 78
e 6 85
e 6 86
e 6 88
e 6 92
e 6 96
e 6 97
e 6 102
e 6 103
e 6 113
e 6 122
e 6 128
e 6 139
e 7 22
e 7 33
e 7 43
e 7 48
e 7 49
e 7 50
e 7 59
e 7 63
e 7 64
e 7 65
e 7 67
e 7 69
e 7 70
e 7 72
e 7 73
e 7 74
e 7 80
e 7 87
e 7 88
e 7 89
e 7 92
e 7 94
e 7 95
e 7 97
e 7 101
e 7 116
e 7 120
e 7 121
e 7 122
e 7 127
e 7 128
e 7 129
e 7 132
e 7 136
e 8 23
e 8 42
e 8 43
e 8 50
e 8 54
e 8 61
e 8 66
e 8 74
e 8 82
e 8 86
e 8 91
e 8 92
e 8 95
e 8 98
e 8 99
e 8 103
e 8 104
e 8 116
e 8 118
e 8 130
e 8 140
e 9 24
e 9 28
e 9 39
e 9 42
e 9 46
e 9 47
e 9 50
e 9 55
e 9 58
e 9 63
e 9 68
e 9 71
e 9 73
e 9 76
e 9 77
e 9 83
e 9 85
e 9 86
e 9 89
e 9 90
e 9 94
e 9 96
e 9 98
e 9 100
e 9 105
e 9 107
e 9 115
e 9 116
e 9 117
e 9 120
e 9 123
e 9 124
e 9 130
e 9 136
e 10 26
e 10 28
e 10 29
e 10 30
e 10 35
e 10 38
e 10 42
e 10 44
e 10 48
e 10 50
e 10 55
e 10 57
e 10 59
e 10 66
e 10 68
e 10 75
e 10 79
e 10 88
e 10 92
e 10 96
e 10 101
e 10 103
e 10 107
e 10 110
e 10 113
e 10 115
e 10 116
e 10 117
e 10 124
e 10 135
e 11 21
e 11 29
e 11 31
e 11 32
e 11 39
e 11 46
e 11 53
e 11 54
e 11 57
e 11 58
e 11 62
e 11 65
e 11 66
e 11 74
e 11 84
e 11 91
e 11 95
e 11 103
e 11 104
e 11 105
e 11 106
e 11 109
e 11 115
e 11 116
e 11 123
e 11 133
e 11 136
e 11 140
e 12 22
e 12 23
e 12 25
e 12 26
e 12 32
e 12 35
e 12 36
e 12 37
e 12 46
e 12 52
e 12 53
e 12 56
e 12 61
e 12 62
e 12 65
e 12 66
e 12 76
e 12 81
e 12 84
e 12 87
e 12 88
e 12 90
e 12 98
e 12 103
e 12 105
e 12 107
e 12 112
e 12 114
e 12 122
e 12 124
e 12 129
e 12 133
e 12 135
e 12 137
e 13 21
e 13 22
e 13 26
e 13 27
e 13 30
e 13 35
e 13 36
e 13 38
e 13 43
e 13 49
e 13 52
e 13 54
e 13 61
e 13 62
e 13 66
e 13 68
e 13 77
e 13 81
e 13 82
e 13 85
e 13 88
e 13 94
e 13 95
e 13 101
e 13 102
e 13 107
e 13 121
e 13 125
e 13 136
e 13 140
e 14 21
e 14 26
e 14 30
e 14 34
e 14 39
e 14 42
e 14 43
e 14 44
e 14 53
e 14 56
e 14 57
e 14 59
e 14 62
e 14 74
e 14 78
e 14 82
e 14 83
e 14 87
e 14 88
e 14 91
e 14 93
e 14 95
e 14 113
e 14 114
e 14 116
e 14 120
e 14 123
e 14 140
e 15 21
e 15 33
e 15 44
e 15 48
e 15 51
e 15 53
e 15 62
e 15 71
e 15 73
e 15 82
e 15 84
e 15 87
e 15 88
e 15 94
e 15 97
e 15 101
e 15 105
e 15 106
e 15 107
e 15 108
e 15 111
e 15 112
e 15 116
e 15 118
e 15 124
e 15 126
e 15 127
e 15 128
e 15 135
e 15 138
e 16 25
e 16 28
e 16 38
e 16 42
e 16 44
e 16 52
e 16 53
e 16 55
e 16 57
e 16 64
e 16 65
e 16 67
e 16 70
e 16 72
e 16 79
e 16 80
e 16 88
e 16 91
e 16 93
e 16 98
e 16 100
e 16 106
e 16 111
e 16 112
e 16 113
e 16 120
e 16 122
e 16 124
e 16 125
e 16 127
e 16 130
e 16 131
e 16 137
e 16 140
e 17 22
e 17 24
e 17 26
e 17 34
e 17 35
e 17 36
e 17 41
e 17 45
e 17 49
e 17 53
e 17 55
e 17 58
e 17 66
e 17 68
e 17 69
e 17 70
e 17 74
e 17 75
e 17 82
e 17 84
e 17 85
e 17 92
e 17 95
e 17 98
e 17 102
e 17 108
e 17 109
e 17 111
e 17 119
e 17 120
e 17 126
e 17 130
e 17 135
e 17 137
e 17 140
e 18 25
e 18 30
e 18 32
e 18 33
e 18 35
e 18 39
e 18 40
e 18 48
e 18 49
e 18 52
e 18 61
e 18 62
e 18 77
e 18 83
e 18 85
e 18 92
e 18 93
e 18 94
e 18 100
e 18 103
e 18 110
e 18 112
e 18 119
e 18 120
e 18 123
e 18 125
e 18 126
e 18 130
e 18 133
e 18 135
e 18 136
e 18 137
e 19 22
e 19 26
e 19 27
e 19 34
e 19 36
e 19 38
e 19 42
e 19 44
e 19 57
e 19 59
e 19 62
e 19 63
e 19 64
e 19 65
e 19 67
e 19 69
e 19 70
e 19 71
e 19 72
e 19 75
e 19 79
e 19 81
e 19 82
e 19 98
e 19 101
e 19 102
e 19 108
e 19 116
e 19 117
e 19 119
e 19 120
e 19 121
e 19 122
e 19 130
e 19 134
e 19 137
e 19 139
e 19 140
e 20 24
e 20 25
e 20 31
e 20 35
e 20 37
e 20 43
e 20 45
e 20 47
e 20 48
e 20 50
e 20 51
e 20 71
e 20 73
e 20 76
e 20 77
e 20 83
e 20 84
e 20 85
e 20 86
e 20 89
e 20 90
e 20 91
e 20 94
e 20 97
e 20 101
e 20 103
e 20 105
e 20 108
e 20 113
e 20 118
e 20 119
e 20 129
e 20 130
e 20 131
e 20 135
e 20 140
e 21 55
e 21 56
e 21 57
e 21 66
e 21 68
e 21 69
e 21 71
e 21 78
e 21 80
e 21 82
e 21 83
e 21 92
e 21 120
e 21 121
e 21 126
e 21 128
e 21 132
e 21 139
e 22 44
e 22 46
e 22 47
e 22 48
e 22 51
e 22 58
e 22 61
e 22 63
e 22 69
e 22 70
e 22 76
e 22 78
e 22 82
e 22 93
e 22 96
e 22 97
e 22 110
e 22 111
e 22 112
e 22 119
e 22 131
e 23 48
e 23 51
e 23 56
e 23 59
e 23 60
e 23 63
e 23 70
e 23 72
e 23 74
e 23 75
e 23 82
e 23 83
e 23 85
e 23 87
e 23 96
e 23 123
e 23 124
e 23 133
e 24 42
e 24 44
e 24 50
e 24 53
e 24 54
e 24 56
e 24 57
e 24 70
e 24 73
e 24 77
e 24 88
e 24 90
e 24 92
e 24 97
e 24 99
e 24 100
e 24 103
e 24 109
e 24 110
e 24 120
e 24 122
e 24 124
e 24 127
e 24 128
e 24 131
e 24 137
e 24 140
e 25 48
e 25 57
e 25 58
e 25 60
e 25 62
e 25 67
e 25 68
e 25 79
e 25 82
e 25 83
e 25 84
e 25 91
e 25 95
e 25 103
e 25 104
e 25 106
e 25 110
e 25 114
e 25 123
e 25 133
e 25 135
e 25 138
e 25 140
e 26 53
e 26 54
e 26 63
e 26 69
e 26 70
e 26 72
e 26 74
e 26 75
e 26 80
e 26 96
e 26 97
e 26 100
e 26 101
e 26 102
e 26 103
e 26 109
e 26 112
e 26 119
e 26 120
e 26 122
e 26 124
e 26 125
e 26 128
e 26 139
e 27 44
e 27 53
e 27 56
e 27 66
e 27 69
e 27 74
e 27 76
e 27 79
e 27 81
e 27 89
e 27 90
e 27 98
e 27 100
e 27 110
e 27 112
e 27 120
e 27 121
e 27 122
e 27 123
e 27 131
e 27 137
e 27 139
e 27 140
e 28 50
e 28 55
e 28 59
e 28 66
e 28 67
e 28 68
e 28 69
e 28 70
e 28 71
e 28 78
e 28 85
e 28 91
e 28 93
e 28 95
e 28 101
e 28 105
e 28 108
e 28 109
e 28 111
e 28 115
e 28 120
e 28 124
e 28 127
e 28 130
e 28 134
e 28 137
e 28 138
e 28 139
e 29 48
e 29 49
e 29 51
e 29 57
e 29 58
e 29 67
e 29 70
e 29 79
e 29 82
e 29 86
e 29 87
e 29 89
e 29 92
e 29 96
e 29 98
e 29 100
e 29 110
e 29 118
e 29 119
e 29 122
e 29 127
e 29 129
e 29 130
e 29 133
e 30 43
e 30 45
e 30 46
e 30 48
e 30 49
e 30 53
e 30 55
e 30 61
e 30 64
e 30 68
e 30 70
e 30 83
e 30 86
e 30 87
e 30 103
e 30 111
e 30 113
e 30 115
e 30 118
e 30 127
e 30 128
e 30 129
e 30 134
e 30 137
e 31 41
e 31 43
e 31 49
e 31 50
e 31 56
e 31 61
e 31 62
e 31 65
e 31 75
e 31 79
e 31 80
e 31 81
e 31 82
e 31 83
e 31 89
e 31 100
e 31 101
e 31 103
e 31 108
e 31 111
e 31 115
e 31 118
e 31 119
e 31 123
e 31 126
e 31 140
e 32 44
e 32 45
e 32 46
e 32 56
e 32 64
e 32 68
e 32 72
e 32 76
e 32 79
e 32 82
e 32 83
e 32 88
e 32 91
e 32 101
e 32 104
e 32 109
e 32 127
e 32 130
e 32 131
e 32 133
e 32 134
e 32 137
e 33 45
e 33 47
e 33 53
e 33 57
e 33 59
e 33 66
e 33 69
e 33 72
e 33 76
e 33 77
e 33 78
e 33 86
e 33 92
e 33 94
e 33 96
e 33 98
e 33 102
e 33 112
e 33 118
e 33 119
e 33 120
e 33 135
e 33 138
e 33 139
e 33 140
e 34 44
e 34 50
e 34 53
e 34 64
e 34 69
e 34 88
e 34 89
e 34 92
e 34 99
e 34 100
e 34 106
e 34 119
e 34 120
e 34 126
e 34 129
e 34 137
e 34 138
e 35 42
e 35 43
e 35 46
e 35 51
e 35 58
e 35 59
e 35 60
e 35 62
e 35 64
e 35 69
e 35 78
e 35 80
e 35 81
e 35 84
e 35 87
e 35 89
e 35 96
e 35 109
e 35 110
e 35 116
e 35 125
e 35 127
e 35 133
e 35 135
e 35 138
e 36 41
e 36 42
e 36 44
e 36 45
e 36 51
e 36 52
e 36 53
e 36 57
e 36 60
e 36 61
e 36 64
e 36 66
e 36 67
e 36 68
e 36 79
e 36 81
e 36 83
e 36 89
e 36 90
e 36 93
e 36 99
e 36 104
e 36 106
e 36 110
e 36 111
e 36 112
e 36 116
e 36 117
e 36 118
e 36 124
e 36 125
e 36 126
e 36 127
e 36 130
e 36 136
e 36 139
e 37 43
e 37 44
e 37 47
e 37 48
e 37 52
e 37 56
e 37 59
e 37 60
e 37 65
e 37 67
e 37 75
e 37 84
e 37 87
e 37 88
e 37 92
e 37 93
e 37 97
e 37 98
e 37 99
e 37 101
e 37 103
e 37 108
e 37 109
e 37 112
e 37 118
e 37 120
e 37 121
e 37 123
e 37 125
e 37 126
e 37 127
e 37 137
e 37 138
e 37 140
e 38 41
e 38 42
e 38 48
e 38 53
e 38 54
e 38 57
e 38 66
e 38 69
e 38 73
e 38 81
e 38 90
e 38 94
e 38 96
e 38 101
e 38 104
e 38 106
e 38 113
e 38 114
e 38 115
e 38 119
e 38 122
e 38 128
e 38 129
e 38 130
e 38 131
e 38 135
e 38 136
e 39 42
e 39 48
e 39 49
e 39 52
e 39 61
e 39 67
e 39 74
e 39 80
e 39 87
e 39 88
e 39 96
e 39 97
e 39 103
e 39 104
e 39 106
e 39 107
e 39 109
e 39 113
e 39 118
e 39 126
e 39 129
e 39 135
e 39 139
e 40 45
e 40 46
e 40 48
e 40 49
e 40 50
e 40 51
e 40 57
e 40 59
e 40 61
e 40 68
e 40 73
e 40 77
e 40 87
e 40 106
e 40 117
e 40 118
e 40 120
e 40 121
e 40 122
e 40 124
e 40 125
e 40 128
e 40 129
e 40 134
e 40 137
e 40 140
e 41 73
e 41 76
e 41 79
e 41 87
e 41 89
e 41 91
e 41 92
e 41 95
e 41 96
e 41 99
e 41 106
e 41 109
e 41 111
e 41 119
e 41 121
e 41 134
e 41 135
e 41 138
e 41 139
e 41 140
e 42 61
e 42 64
e 42 69
e 42 70
e 42 71
e 42 76
e 42 79
e 42 82
e 42 86
e 42 93
e 42 100
e 42 104
e 42 106
e 42 115
e 42 117
e 42 122
e 42 126
e 42 132
e 42 136
e 43 61
e 43 62
e 43 67
e 43 70
e 43 71
e 43 76
e 43 77
e 43 78
e 43 79
e 43 81
e 43 82
e 43 86
e 43 88
e 43 95
e 43 98
e 43 99
e 43 101
e 43 112
e 43 113
e 43 114
e 43 117
e 43 118
e 43 125
e 43 126
e 43 128
e 43 137
e 43 139
e 44 67
e 44 68
e 44 72
e 44 76
e 44 77
e 44 80
e 44 83
e 44 85
e 44 90
e 44 93
e 44 94
e 44 95
e 44 97
e 44 113
e 44 114
e 44 117
e 44 118
e 44 122
e 44 128
e 44 133
e 44 138
e 44 139
e 45 61
e 45 62
e 45 71
e 45 72
e 45 73
e 45 81
e 45 84
e 45 86
e 45 90
e 45 104
e 45 105
e 45 108
e 45 109
e 45 114
e 45 117
e 45 119
e 45 123
e 45 132
e 45 135
e 45 137
e 45 139
e 45 140
e 46 61
e 46 62
e 46 63
e 46 64
e 46 69
e 46 72
e 46 73
e 46 74
e 46 77
e 46 91
e 46 99
e 46 100
e 46 103
e 46 104
e 46 107
e 46 110
e 46 116
e 46 119
e 46 125
e 46 127
e 46 131
e 46 133
e 46 138
e 46 139
e 47 62
e 47 63
e 47 66
e 47 75
e 47 78
e 47 81
e 47 84
e 47 89
e 47 92
e 47 95
e 47 97
e 47 102
e 47 104
e 47 105
e 47 106
e 47 113
e 47 119
e 47 122
e 47 124
e 47 125
e 47 126
e 47 127
e 47 130
e 47 136
e 47 138
e 48 61
e 48 63
e 48 64
e 48 67
e 48 69
e 48 71
e 48 72
e 48 73
e 48 75
e 48 86
e 48 90
e 48 95
e 48 97
e 48 101
e 48 102
e 48 103
e 48 106
e 48 116
e 48 117
e 48 122
e 48 131
e 48 132
e 49 64
e 49 65
e 49 69
e 49 76
e 49 83
e 49 91
e 49 94
e 49 95
e 49 98
e 49 99
e 49 105
e 49 113
e 49 116
e 49 124
e 49 136
e 49 138
e 49 139
e 50 61
e 50 64
e 50 70
e 50 72
e 50 98
e 50 99
e 50 102
e 50 105
e 50 109
e 50 115
e 50 116
e 50 124
e 50 126
e 50 134
e 51 63
e 51 68
e 51 71
e 51 75
e 51 77
e 51 80
e 51 82
e 51 89
e 51 90
e 51 96
e 51 97
e 51 102
e 51 106
e 51 109
e 51 111
e 51 112
e 51 116
e 51 117
e 51 118
e 51 123
e 51 135
e 51 136
e 52 65
e 52 67
e 52 68
e 52 72
e 52 73
e 52 78
e 52 81
e 52 95
e 52 97
e 52 99
e 52 105
e 52 106
e 52 109
e 52 112
e 52 116
e 52 121
e 52 123
e 52 124
e 52 127
e 52 132
e 52 140
e 53 63
e 53 64
e 53 66
e 53 67
e 53 68
e 53 72
e 53 78
e 53 80
e 53 81
e 53 84
e 53 86
e 53 88
e 53 93
e 53 94
e 53 96
e 53 99
e 53 101
e 53 102
e 53 116
e 53 128
e 53 129
e 53 132
e 53 137
e 53 138
e 53 140
e 54 63
e 54 64
e 54 67
e 54 69
e 54 70
e 54 72
e 54 73
e 54 75
e 54 81
e 54 84
e 54 85
e 54 87
e 54 88
e 54 89
e 54 94
e 54 105
e 54 108
e 54 111
e 54 118
e 54 120
e 54 123
e 54 125
e 54 126
e 54 130
e 54 135
e 54 137
e 55 66
e 55 68
e 55 70
e 55 71
e 55 72
e 55 73
e 55 74
e 55 75
e 55 77
e 55 79
e 55 82
e 55 83
e 55 87
e 55 89
e 55 90
e 55 92
e 55 100
e 55 103
e 55 105
e 55 108
e 55 109
e 55 111
e 55 112
e 55 115
e 55 117
e 55 118
e 55 121
e 55 126
e 55 128
e 55 131
e 56 62
e 56 65
e 56 66
e 56 74
e 56 75
e 56 78
e 56 79
e 56 82
e 56 88
e 56 89
e 56 95
e 56 100
e 56 113
e 56 116
e 56 117
e 56 122
e 56 125
e 56 127
e 56 128
e 56 130
e 56 131
e 56 133
e 56 138
e 56 140
e 57 64
e 57 66
e 57 67
e 57 73
e 57 83
e 57 88
e 57 94
e 57 95
e 57 97
e 57 100
e 57 102
e 57 103
e 57 104
e 57 106
e 57 113
e 57 114
e 57 117
e 57 120
e 57 121
e 57 123
e 57 124
e 57 130
e 57 135
e 57 138
e 58 63
e 58 80
e 58 81
e 58 93
e 58 96
e 58 100
e 58 101
e 58 113
e 58 115
e 58 123
e 58 125
e 58 130
e 58 131
e 58 137
e 58 138
e 59 64
e 59 68
e 59 71
e 59 74
e 59 76
e 59 82
e 59 85
e 59 87
e 59 91
e 59 93
e 59 95
e 59 96
e 59 100
e 59 101
e 59 111
e 59 134
e 59 135
e 60 61
e 60 63
e 60 74
e 60 75
e 60 78
e 60 80
e 60 87
e 60 93
e 60 95
e 60 98
e 60 103
e 60 105
e 60 107
e 60 108
e 60 109
e 60 118
e 60 119
e 60 120
e 60 121
e 60 126
e 60 130
e 60 133
e 60 134
e 60 136
e 61 84
e 61 87
e 61 90
e 61 92
e 61 97
e 61 102
e 61 106
e 61 107
e 61 115
e 61 120
e 61 132
e 61 134
e 62 87
e 62 93
e 62 96
e 62 99
e 62 102
e 62 104
e 62 110
e 62 111
e 62 112
e 62 114
e 62 127
e 62 132
e 62 135
e 63 86
e 63 89
e 63 90
e 63 91
e 63 96
e 63 97
e 63 100
e 63 101
e 63 102
e 63 104
e 63 111
e 63 119
e 63 120
e 63 122
e 63 127
e 63 131
e 64 87
e 64 91
e 64 101
e 64 104
e 64 107
e 64 136
e 64 140
e 65 82
e 65 86
e 65 87
e 65 89
e 65 90
e 65 94
e 65 96
e 65 99
e 65 105
e 65 114
e 65 117
e 65 118
e 65 124
e 65 125
e 65 126
e 65 127
e 65 130
e 65 137
e 66 81
e 66 82
e 66 83
e 66 84
e 66 85
e 66 88
e 66 91
e 66 95
e 66 102
e 66 104
e 66 109
e 66 115
e 66 117
e 66 119
e 66 122
e 66 124
e 66 129
e 66 130
e 66 134
e 67 84
e 67 86
e 67 88
e 67 90
e 67 91
e 67 94
e 67 104
e 67 111
e 67 113
e 67 114
e 67 115
e 67 116
e 67 118
e 67 120
e 67 121
e 67 122
e 67 127
e 67 129
e 67 130
e 67 136
e 68 103
e 68 104
e 68 109
e 68 113
e 68 116
e 68 121
e 68 125
e 68 127
e 68 128
e 68 130
e 68 136
e 68 138
e 69 81
e 69 82
e 69 86
e 69 88
e 69 90
e 69 91
e 69 95
e 69 100
e 69 103
e 69 110
e 69 115
e 69 121
e 69 126
e 69 132
e 69 135
e 69 138
e 69 139
e 69 140
e 70 81
e 70 86
e 70 87
e 70 88
e 70 89
e 70 91
e 70 92
e 70 94
e 70 99
e 70 103
e 70 108
e 70 110
e 70 115
e 70 116
e 70 123
e 70 124
e 70 133
e 70 138
e 70 139
e 71 85
e 71 87
e 71 91
e 71 93
e 71 95
e 71 96
e 71 99
e 71 102
e 71 105
e 71 110
e 71 112
e 71 114
e 71 119
e 71 121
e 71 125
e 71 131
e 71 132
e 71 137
e 71 138
e 71 139
e 72 86
e 72 89
e 72 91
e 72 92
e 72 93
e 72 96
e 72 97
e 72 99
e 72 110
e 72 111
e 72 116
e 72 120
e 72 128
e 72 129
e 72 130
e 72 140
e 73 81
e 73 86
e 73 88
e 73 91
e 73 92
e 73 94
e 73 98
e 73 101
e 73 102
e 73 103
e 73 107
e 73 113
e 73 115
e 73 121
e 74 81
e 74 91
e 74 93
e 74 94
e 74 104
e 74 105
e 74 106
e 74 107
e 74 109
e 74 111
e 74 114
e 74 118
e 74 120
e 74 125
e 74 137
e 74 140
e 75 83
e 75 86
e 75 87
e 75 88
e 75 91
e 75 94
e 75 95
e 75 96
e 75 105
e 75 114
e 75 128
e 75 131
e 76 83
e 76 99
e 76 104
e 76 108
e 76 109
e 76 110
e 76 111
e 76 133
e 76 138
e 76 140
e 77 82
e 77 88
e 77 90
e 77 112
e 77 125
e 77 129
e 77 130
e 77 134
e 77 135
e 77 136
e 78 82
e 78 86
e 78 89
e 78 96
e 78 97
e 78 102
e 78 105
e 78 110
e 78 111
e 78 114
e 78 123
e 78 125
e 78 137
e 79 81
e 79 88
e 79 95
e 79 99
e 79 104
e 79 107
e 79 110
e 79 111
e 79 113
e 79 116
e 79 118
e 79 122
e 79 125
e 79 130
e 79 137
e 79 138
e 80 82
e 80 86
e 80 89
e 80 91
e 80 99
e 80 103
e 80 111
e 80 123
e 80 125
e 80 134
e 80 135
e 80 139
e 81 102
e 81 107
e 81 108
e 81 110
e 81 117
e 81 119
e 81 130
e 82 108
e 82 121
e 82 126
e 82 139
e 83 101
e 83 102
e 83 103
e 83 105
e 83 112
e 83 118
e 83 127
e 83 132
e 83 133
e 83 139
e 84 108
e 84 111
e 84 114
e 84 118
e 84 129
e 84 131
e 84 138
e 84 139
e 85 108
e 85 117
e 85 124
e 85 136
e 85 137
e 86 103
e 86 104
e 86 106
e 86 108
e 86 111
e 86 113
e 86 126
e 86 131
e 86 133
e 87 104
e 87 122
e 87 124
e 87 125
e 87 126
e 87 140
e 88 102
e 88 103
e 88 107
e 88 121
e 88 124
e 88 134
e 88 138
e 88 139
e 89 101
e 89 103
e 89 107
e 89 112
e 89 115
e 89 116
e 89 129
e 89 130
e 89 131
e 89 134
e 89 137
e 89 138
e 89 139
e 90 107
e 90 111
e 90 118
e 90 119
e 90 127
e 90 131
e 90 133
e 90 140
e 91 107
e 91 111
e 91 115
e 91 117
e 91 121
e 91 124
e 91 125
e 91 126
e 91 128
e 91 129
e 91 132
e 91 133
e 92 102
e 92 106
e 92 110
e 92 111
e 92 124
e 92 131
e 93 103
e 93 104
e 93 107
e 93 115
e 93 116
e 93 117
e 93 118
e 93 135
e 93 136
e 93 138
e 93 139
e 94 104
e 94 110
e 94 111
e 94 113
e 94 115
e 94 121
e 94 122
e 94 126
e 94 129
e 94 132
e 94 133
e 94 135
e 95 104
e 95 105
e 95 111
e 95 120
e 95 122
e 95 125
e 95 126
e 95 127
e 95 129
e 95 133
e 95 136
e 96 104
e 96 106
e 96 107
e 96 110
e 96 114
e 96 127
e 96 131
e 96 138
e 97 105
e 97 110
e 97 112
e 97 115
e 97 119
e 97 131
e 97 132
e 97 136
e 98 106
e 98 107
e 98 108
e 98 113
e 98 115
e 98 124
e 98 126
e 98 128
e 98 134
e 98 136
e 99 103
e 99 116
e 99 118
e 99 119
e 99 124
e 99 128
e 99 129
e 99 131
e 99 137
e 99 138
e 100 103
e 100 104
e 100 109
e 100 111
e 100 112
e 100 113
e 100 118
e 100 124
e 100 134
e 100 136
e 101 125
e 101 127
e 101 138
e 102 126
e 102 128
e 102 131
e 102 132
e 102 136
e 102 139
e 103 124
e 103 127
e 103 128
e 103 129
e 104 129
e 104 130
e 104 136
e 105 122
e 105 123
e 105 139
e 106 124
e 106 126
e 106 135
e 107 122
e 107 124
e 107 128
e 107 129
e 107 133
e 108 124
e 108 126
e 108 129
e 108 133
e 108 134
e 108 135
e 108 138
e 108 139
e 108 140
e 109 121
e 109 125
e 109 126
e 109 139
e 110 131
e 110 132
e 110 135
e 111 126
e 111 130
e 111 132
e 111 136
e 112 121
e 112 122
e 112 124
e 112 125
e 112 126
e 112 129
e 112 135
e 112 136
e 112 138
e 113 126
e 113 139
e 114 123
e 114 124
e 114 125
e 114 130
e 114 132
e 114 135
e 114 137
e 115 124
e 115 131
e 115 132
e 115 135
e 115 137
e 116 121
e 116 122
e 116 124
e 116 128
e 116 131
e 116 138
e 116 139
e 116 140
e 117 121
e 117 124
e 117 129
e 117 136
e 117 138
e 117 140
e 118 123
e 118 124
e 118 128
e 118 131
e 118 132
e 118 140
e 119 121
e 119 125
e 119 129
e 119 134
e 119 135
e 119 139
e 120 121
e 120 122
e 120 125
e 120 128
e 120 129
e 120 132
e 120 138
e 120 140
