c FILE: balanced_graphs/balanced_140_7_25_5.col
c
c DESCRIPTION: Random balanced graph, 140 nodes,
c              partitions 7
c              edge probability 0.25
c
c G(140,7,0.25) graph
c number of vertices : 140
c max number of edges: 9730
c edge probability   : 0.25
c
c           Graph Stats
c number of vertices  : 140
c nonisolated vertices: 140
c number of edges     : 2081
c edge density        : 0.2139
c max degree          : 43
c avg degree          : 29.73
c min degree          : 18
c
p col 140 2081
e 1 24
e 1 31
e 1 33
e 1 34
e 1 46
e 1 56
e 1 59
e 1 61
e 1 70
e 1 73
e 1 78
e 1 81
e 1 82
e 1 88
e 1 91
e 1 93
e 1 98
e 1 100
e 1 108
e 1 113
e 1 117
e 1 118
e 1 120
e 1 127
e 1 129
e 1 138
e 1 139
e 2 21
e 2 27
e 2 28
e 2 30
e 2 33
e 2 35
e 2 36
e 2 37
e 2 38
e 2 43
e 2 45
e 2 46
e 2 48
e 2 49
e 2 50
e 2 56
e 2 57
e 2 63
e 2 66
e 2 72
e 2 84
e 2 90
e 2 91
e 2 97
e 2 100
e 2 101
e 2 102
e 2 105
e 2 106
e 2 113
e 2 114
e 2 132
e 2 138
e 2 139
e 3 21
e 3 34
e 3 46
e 3 60
e 3 62
e 3 63
e 3 65
e 3 66
e 3 69
e 3 73
e 3 80
e 3 83
e 3 93
e 3 110
e 3 114
e 3 117
e 3 118
e 3 119
e 3 123
e 3 131
e 3 133
e 3 135
e 3 138
e 4 30
e 4 31
e 4 32
e 4 36
e 4 41
e 4 42
e 4 46
e 4 47
e 4 49
e 4 52
e 4 53
e 4 55
e 4 58
e 4 73
e 4 74
e 4 76
e 4 77
e 4 78
e 4 79
e 4 88
e 4 93
e 4 99
e 4 104
e 4 106
e 4 107
e 4 111
e 4 112
e 4 113
e 4 114
e 4 121
e 4 122
e 4 126
e 4 133
e 4 136
e 4 139
e 5 26
e 5 38
e 5 46
e 5 51
e 5 71
e 5 77
e 5 87
e 5 89
e 5 93
e 5 95
e 5 99
e 5 103
e 5 104
e 5 105
e 5 106
e 5 109
e 5 110
e 5 114
e 5 118
e 5 124
e 5 127
e 5 134
e 5 138
e 6 21
e 6 23
e 6 25
e 6 26
e 6 29
e 6 33
e 6 44
e 6 47
e 6 50
e 6 65
e 6 67
e 6 68
e 6 71
e 6 72
e 6 77
e 6 78
e 6 80
e 6 84
e 6 85
e 6 89
e 6 93
e 6 98
e 6 108
e 6 110
e 6 112
e 6 114
e 6 118
e 6 122
e 6 127
e 6 130
e 6 136
e 7 24
e 7 32
e 7 36
e 7 38
e 7 47
e 7 48
e 7 62
e 7 65
e 7 69
e 7 77
e 7 78
e 7 80
e 7 87
e 7 88
e 7 91
e 7 94
e 7 96
e 7 99
e 7 101
e 7 106
e 7 107
e 7 130
e 7 133
e 7 139
e 8 26
e 8 34
e 8 37
e 8 45
e 8 46
e 8 47
e 8 56
e 8 57
e 8 58
e 8 61
e 8 66
e 8 67
e 8 70
e 8 73
e 8 74
e 8 77
e 8 81
e 8 83
e 8 86
e 8 92
e 8 99
e 8 103
e 8 104
e 8 105
e 8 114
e 8 117
e 8 118
e 8 121
e 8 127
e 8 137
e 8 138
e 8 139
e 9 23
e 9 24
e 9 34
e 9 36
e 9 53
e 9 54
e 9 57
e 9 58
e 9 60
e 9 61
e 9 62
e 9 68
e 9 69
e 9 71
e 9 73
e 9 74
e 9 78
e 9 108
e 9 110
e 9 111
e 9 113
e 9 114
e 9 115
e 9 121
e 9 124
e 9 126
e 9 128
e 9 129
e 9 134
e 9 140
e 10 27
e 10 28
e 10 36
e 10 41
e 10 47
e 10 59
e 10 63
e 10 67
e 10 71
e 10 76
e 10 77
e 10 79
e 10 81
e 10 82
e 10 95
e 10 96
e 10 103
e 10 104
e 10 107
e 10 108
e 10 111
e 10 118
e 10 132
e 10 137
e 11 24
e 11 26
e 11 32
e 11 43
e 11 45
e 11 55
e 11 57
e 11 58
e 11 63
e 11 64
e 11 65
e 11 66
e 11 67
e 11 69
e 11 82
e 11 90
e 11 91
e 11 93
e 11 95
e 11 96
e 11 104
e 11 108
e 11 110
e 11 129
e 11 130
e 11 134
e 11 135
e 11 140
e 12 24
e 12 26
e 12 29
e 12 30
e 12 40
e 12 42
e 12 43
e 12 47
e 12 50
e 12 51
e 12 55
e 12 59
e 12 60
e 12 69
e 12 75
e 12 90
e 12 95
e 12 97
e 12 106
e 12 109
e 12 111
e 12 113
e 12 114
e 12 115
e 12 117
e 12 119
e 12 120
e 12 121
e 12 122
e 12 128
e 12 129
e 12 130
e 12 132
e 13 28
e 13 30
e 13 34
e 13 40
e 13 42
e 13 45
e 13 47
e 13 48
e 13 50
e 13 51
e 13 52
e 13 54
e 13 55
e 13 59
e 13 60
e 13 61
e 13 65
e 13 68
e 13 69
e 13 70
e 13 72
e 13 75
e 13 76
e 13 77
e 13 80
e 13 81
e 13 85
e 13 86
e 13 88
e 13 89
e 13 91
e 13 92
e 13 93
e 13 100
e 13 104
e 13 107
e 13 116
e 13 120
e 13 124
e 13 128
e 13 133
e 13 135
e 13 140
e 14 22
e 14 23
e 14 24
e 14 29
e 14 35
e 14 44
e 14 45
e 14 47
e 14 52
e 14 58
e 14 59
e 14 63
e 14 68
e 14 75
e 14 76
e 14 80
e 14 83
e 14 84
e 14 87
e 14 90
e 14 95
e 14 97
e 14 100
e 14 103
e 14 105
e 14 107
e 14 112
e 14 120
e 14 123
e 14 126
e 14 131
e 14 133
e 14 136
e 14 139
e 15 25
e 15 26
e 15 27
e 15 28
e 15 30
e 15 36
e 15 38
e 15 40
e 15 49
e 15 50
e 15 51
e 15 55
e 15 60
e 15 65
e 15 66
e 15 67
e 15 70
e 15 71
e 15 72
e 15 74
e 15 79
e 15 86
e 15 92
e 15 97
e 15 100
e 15 104
e 15 108
e 15 110
e 15 121
e 15 124
e 15 128
e 15 129
e 15 132
e 15 139
e 16 32
e 16 34
e 16 37
e 16 44
e 16 48
e 16 49
e 16 51
e 16 53
e 16 57
e 16 60
e 16 63
e 16 64
e 16 66
e 16 73
e 16 77
e 16 78
e 16 82
e 16 85
e 16 92
e 16 93
e 16 97
e 16 102
e 16 103
e 16 111
e 16 112
e 16 121
e 16 122
e 16 125
e 16 129
e 16 135
e 17 22
e 17 27
e 17 28
e 17 30
e 17 32
e 17 33
e 17 38
e 17 41
e 17 43
e 17 45
e 17 49
e 17 54
e 17 56
e 17 57
e 17 58
e 17 59
e 17 61
e 17 63
e 17 67
e 17 68
e 17 87
e 17 93
e 17 96
e 17 99
e 17 109
e 17 113
e 17 116
e 17 117
e 17 120
e 17 123
e 18 25
e 18 26
e 18 30
e 18 36
e 18 47
e 18 50
e 18 53
e 18 58
e 18 59
e 18 62
e 18 67
e 18 70
e 18 73
e 18 80
e 18 84
e 18 92
e 18 96
e 18 98
e 18 99
e 18 100
e 18 102
e 18 107
e 18 110
e 18 113
e 18 114
e 18 117
e 18 119
e 18 125
e 18 131
e 18 136
e 18 140
e 19 21
e 19 25
e 19 38
e 19 39
e 19 45
e 19 52
e 19 57
e 19 60
e 19 61
e 19 62
e 19 70
e 19 75
e 19 84
e 19 85
e 19 91
e 19 93
e 19 95
e 19 100
e 19 103
e 19 106
e 19 108
e 19 110
e 19 119
e 19 138
e 20 21
e 20 22
e 20 23
e 20 34
e 20 37
e 20 38
e 20 40
e 20 41
e 20 44
e 20 45
e 20 46
e 20 50
e 20 52
e 20 53
e 20 59
e 20 62
e 20 63
e 20 73
e 20 77
e 20 80
e 20 83
e 20 85
e 20 88
e 20 96
e 20 97
e 20 99
e 20 102
e 20 105
e 20 108
e 20 112
e 20 115
e 20 118
e 20 123
e 20 127
e 20 138
e 21 41
e 21 43
e 21 45
e 21 49
e 21 51
e 21 52
e 21 55
e 21 64
e 21 68
e 21 69
e 21 70
e 21 73
e 21 77
e 21 79
e 21 86
e 21 89
e 21 94
e 21 96
e 21 97
e 21 98
e 21 100
e 21 102
e 21 106
e 21 107
e 21 111
e 21 113
e 21 119
e 21 121
e 21 122
e 21 124
e 21 131
e 21 132
e 21 137
e 21 140
e 22 46
e 22 49
e 22 50
e 22 51
e 22 55
e 22 57
e 22 64
e 22 65
e 22 72
e 22 74
e 22 76
e 22 79
e 22 82
e 22 85
e 22 86
e 22 87
e 22 97
e 22 101
e 22 113
e 22 114
e 22 115
e 22 123
e 22 124
e 22 125
e 22 126
e 22 129
e 22 131
e 22 135
e 22 137
e 23 42
e 23 43
e 23 46
e 23 49
e 23 50
e 23 62
e 23 63
e 23 65
e 23 67
e 23 74
e 23 76
e 23 80
e 23 81
e 23 87
e 23 88
e 23 94
e 23 98
e 23 103
e 23 104
e 23 110
e 23 112
e 23 117
e 23 121
e 23 123
e 23 124
e 23 128
e 23 129
e 23 130
e 24 50
e 24 52
e 24 55
e 24 58
e 24 64
e 24 66
e 24 67
e 24 68
e 24 69
e 24 71
e 24 76
e 24 79
e 24 83
e 24 86
e 24 90
e 24 92
e 24 93
e 24 98
e 24 102
e 24 106
e 24 107
e 24 109
e 24 119
e 24 123
e 24 124
e 24 127
e 24 128
e 24 131
e 24 132
e 24 134
e 24 138
e 25 42
e 25 44
e 25 45
e 25 52
e 25 53
e 25 55
e 25 59
e 25 60
e 25 75
e 25 76
e 25 77
e 25 80
e 25 82
e 25 94
e 25 95
e 25 96
e 25 99
e 25 101
e 25 105
e 25 109
e 25 113
e 25 114
e 25 117
e 25 118
e 25 123
e 25 132
e 25 135
e 25 136
e 25 137
e 26 42
e 26 60
e 26 61
e 26 62
e 26 68
e 26 71
e 26 78
e 26 85
e 26 87
e 26 91
e 26 100
e 26 103
e 26 104
e 26 109
e 26 110
e 26 119
e 26 121
e 26 127
e 26 140
e 27 44
e 27 51
e 27 53
e 27 54
e 27 58
e 27 62
e 27 67
e 27 68
e 27 78
e 27 79
e 27 91
e 27 94
e 27 96
e 27 99
e 27 108
e 27 111
e 27 112
e 27 116
e 27 117
e 27 118
e 27 119
e 27 121
e 27 123
e 27 128
e 27 139
e 27 140
e 28 41
e 28 44
e 28 47
e 28 49
e 28 50
e 28 51
e 28 52
e 28 63
e 28 71
e 28 75
e 28 81
e 28 93
e 28 95
e 28 99
e 28 103
e 28 106
e 28 108
e 28 111
e 28 112
e 28 116
e 28 117
e 28 119
e 28 125
e 28 129
e 28 132
e 28 136
e 28 137
e 28 138
e 29 47
e 29 55
e 29 57
e 29 59
e 29 68
e 29 70
e 29 79
e 29 82
e 29 83
e 29 88
e 29 89
e 29 96
e 29 97
e 29 104
e 29 109
e 29 112
e 29 115
e 29 126
e 29 128
e 29 131
e 29 135
e 30 41
e 30 44
e 30 47
e 30 49
e 30 50
e 30 54
e 30 62
e 30 81
e 30 85
e 30 86
e 30 87
e 30 89
e 30 92
e 30 95
e 30 103
e 30 112
e 30 115
e 30 116
e 30 122
e 30 128
e 30 129
e 30 136
e 30 139
e 30 140
e 31 41
e 31 43
e 31 44
e 31 47
e 31 48
e 31 49
e 31 51
e 31 55
e 31 63
e 31 65
e 31 70
e 31 79
e 31 81
e 31 87
e 31 89
e 31 98
e 31 99
e 31 104
e 31 108
e 31 109
e 31 110
e 31 113
e 31 116
e 31 117
e 31 118
e 31 119
e 31 122
e 31 123
e 31 128
e 31 137
e 31 140
e 32 41
e 32 43
e 32 53
e 32 56
e 32 61
e 32 67
e 32 79
e 32 84
e 32 92
e 32 93
e 32 96
e 32 99
e 32 102
e 32 116
e 32 123
e 32 125
e 32 126
e 32 136
e 33 41
e 33 43
e 33 49
e 33 57
e 33 58
e 33 61
e 33 66
e 33 67
e 33 82
e 33 85
e 33 94
e 33 96
e 33 97
e 33 104
e 33 107
e 33 108
e 33 111
e 33 112
e 33 118
e 33 122
e 33 131
e 33 132
e 33 138
e 34 45
e 34 46
e 34 50
e 34 58
e 34 59
e 34 61
e 34 69
e 34 73
e 34 77
e 34 78
e 34 80
e 34 83
e 34 97
e 34 100
e 34 105
e 34 106
e 34 115
e 34 118
e 34 120
e 34 126
e 34 130
e 34 133
e 34 136
e 35 42
e 35 45
e 35 49
e 35 56
e 35 59
e 35 60
e 35 67
e 35 68
e 35 73
e 35 77
e 35 81
e 35 85
e 35 88
e 35 90
e 35 91
e 35 92
e 35 96
e 35 97
e 35 104
e 35 107
e 35 109
e 35 115
e 35 119
e 35 120
e 35 122
e 35 123
e 35 129
e 35 136
e 35 139
e 36 48
e 36 49
e 36 53
e 36 54
e 36 56
e 36 67
e 36 74
e 36 92
e 36 105
e 36 106
e 36 117
e 36 123
e 36 124
e 36 128
e 36 129
e 36 133
e 36 134
e 36 135
e 36 136
e 37 59
e 37 62
e 37 65
e 37 73
e 37 75
e 37 80
e 37 81
e 37 87
e 37 95
e 37 111
e 37 113
e 37 116
e 37 118
e 37 124
e 37 126
e 37 127
e 37 128
e 37 131
e 37 132
e 37 136
e 38 45
e 38 46
e 38 47
e 38 51
e 38 54
e 38 58
e 38 62
e 38 65
e 38 74
e 38 76
e 38 82
e 38 96
e 38 99
e 38 100
e 38 107
e 38 108
e 38 109
e 38 116
e 38 120
e 38 132
e 38 134
e 38 135
e 38 139
e 39 46
e 39 48
e 39 56
e 39 62
e 39 66
e 39 67
e 39 74
e 39 77
e 39 80
e 39 85
e 39 86
e 39 87
e 39 88
e 39 90
e 39 95
e 39 96
e 39 99
e 39 100
e 39 102
e 39 103
e 39 107
e 39 108
e 39 124
e 39 127
e 39 137
e 40 41
e 40 44
e 40 49
e 40 59
e 40 63
e 40 67
e 40 78
e 40 80
e 40 81
e 40 85
e 40 98
e 40 99
e 40 101
e 40 105
e 40 106
e 40 107
e 40 111
e 40 113
e 40 122
e 40 127
e 40 129
e 40 130
e 40 134
e 40 135
e 40 136
e 40 137
e 40 138
e 40 139
e 40 140
e 41 62
e 41 63
e 41 74
e 41 75
e 41 76
e 41 77
e 41 85
e 41 97
e 41 98
e 41 101
e 41 103
e 41 104
e 41 106
e 41 107
e 41 110
e 41 114
e 41 121
e 41 122
e 41 124
e 41 133
e 41 135
e 41 139
e 42 62
e 42 65
e 42 66
e 42 69
e 42 71
e 42 80
e 42 81
e 42 87
e 42 91
e 42 95
e 42 97
e 42 106
e 42 109
e 42 115
e 42 118
e 42 119
e 42 124
e 42 127
e 42 128
e 42 134
e 43 66
e 43 68
e 43 73
e 43 78
e 43 90
e 43 94
e 43 104
e 43 105
e 43 109
e 43 112
e 43 114
e 43 119
e 43 121
e 43 123
e 43 125
e 43 128
e 43 129
e 43 130
e 43 134
e 44 62
e 44 63
e 44 72
e 44 73
e 44 78
e 44 80
e 44 84
e 44 86
e 44 89
e 44 92
e 44 104
e 44 105
e 44 111
e 44 114
e 44 117
e 44 120
e 44 126
e 44 135
e 45 62
e 45 63
e 45 66
e 45 69
e 45 70
e 45 75
e 45 78
e 45 80
e 45 89
e 45 93
e 45 99
e 45 102
e 45 117
e 45 131
e 45 135
e 46 67
e 46 71
e 46 73
e 46 75
e 46 83
e 46 88
e 46 90
e 46 95
e 46 96
e 46 97
e 46 98
e 46 102
e 46 105
e 46 118
e 46 120
e 46 126
e 46 134
e 46 139
e 46 140
e 47 61
e 47 69
e 47 70
e 47 73
e 47 84
e 47 86
e 47 94
e 47 102
e 47 110
e 47 111
e 47 112
e 47 113
e 47 115
e 47 127
e 47 134
e 48 68
e 48 71
e 48 74
e 48 76
e 48 80
e 48 91
e 48 92
e 48 94
e 48 97
e 48 101
e 48 106
e 48 108
e 48 110
e 48 111
e 48 113
e 48 120
e 48 133
e 48 135
e 48 136
e 48 137
e 48 140
e 49 61
e 49 63
e 49 65
e 49 68
e 49 73
e 49 78
e 49 84
e 49 91
e 49 92
e 49 95
e 49 98
e 49 102
e 49 105
e 49 110
e 49 112
e 49 115
e 49 121
e 49 124
e 49 125
e 49 131
e 49 133
e 49 135
e 50 63
e 50 64
e 50 66
e 50 67
e 50 71
e 50 75
e 50 80
e 50 81
e 50 94
e 50 95
e 50 96
e 50 103
e 50 109
e 50 112
e 50 114
e 50 115
e 50 118
e 50 119
e 50 125
e 50 130
e 50 137
e 50 139
e 51 64
e 51 72
e 51 73
e 51 81
e 51 82
e 51 84
e 51 86
e 51 92
e 51 100
e 51 104
e 51 106
e 51 115
e 51 134
e 51 135
e 52 68
e 52 73
e 52 75
e 52 76
e 52 77
e 52 84
e 52 85
e 52 88
e 52 93
e 52 95
e 52 114
e 52 117
e 52 119
e 52 136
e 52 138
e 53 67
e 53 69
e 53 73
e 53 78
e 53 79
e 53 82
e 53 84
e 53 86
e 53 93
e 53 97
e 53 100
e 53 104
e 53 115
e 53 116
e 53 124
e 53 125
e 53 127
e 53 128
e 53 134
e 53 135
e 54 61
e 54 63
e 54 74
e 54 77
e 54 78
e 54 84
e 54 99
e 54 100
e 54 102
e 54 104
e 54 107
e 54 109
e 54 110
e 54 118
e 54 133
e 54 134
e 54 135
e 54 139
e 54 140
e 55 65
e 55 66
e 55 67
e 55 75
e 55 77
e 55 78
e 55 79
e 55 87
e 55 88
e 55 91
e 55 93
e 55 94
e 55 97
e 55 101
e 55 109
e 55 111
e 55 113
e 55 114
e 55 121
e 55 125
e 55 126
e 55 129
e 56 64
e 56 81
e 56 85
e 56 87
e 56 91
e 56 108
e 56 110
e 56 121
e 56 123
e 56 132
e 56 133
e 56 137
e 57 65
e 57 69
e 57 70
e 57 72
e 57 74
e 57 76
e 57 80
e 57 81
e 57 83
e 57 84
e 57 88
e 57 95
e 57 101
e 57 105
e 57 106
e 57 107
e 57 121
e 57 127
e 57 128
e 57 131
e 57 132
e 57 135
e 57 137
e 57 138
e 57 139
e 58 64
e 58 69
e 58 70
e 58 71
e 58 72
e 58 75
e 58 78
e 58 80
e 58 84
e 58 86
e 58 90
e 58 98
e 58 103
e 58 105
e 58 108
e 58 118
e 58 124
e 58 127
e 58 128
e 58 129
e 58 137
e 58 138
e 59 61
e 59 64
e 59 66
e 59 74
e 59 75
e 59 82
e 59 89
e 59 92
e 59 103
e 59 104
e 59 105
e 59 108
e 59 110
e 59 118
e 59 124
e 59 127
e 59 130
e 59 132
e 59 134
e 59 139
e 60 61
e 60 65
e 60 66
e 60 67
e 60 70
e 60 72
e 60 79
e 60 83
e 60 85
e 60 92
e 60 93
e 60 95
e 60 98
e 60 99
e 60 106
e 60 110
e 60 112
e 60 113
e 60 118
e 60 126
e 60 135
e 60 136
e 60 137
e 60 138
e 60 140
e 61 85
e 61 88
e 61 91
e 61 94
e 61 95
e 61 97
e 61 103
e 61 109
e 61 110
e 61 117
e 61 124
e 61 129
e 61 136
e 61 137
e 61 138
e 62 81
e 62 82
e 62 88
e 62 91
e 62 96
e 62 97
e 62 100
e 62 105
e 62 112
e 62 114
e 62 118
e 62 121
e 62 127
e 62 130
e 62 131
e 62 133
e 62 139
e 63 83
e 63 84
e 63 86
e 63 87
e 63 90
e 63 91
e 63 92
e 63 93
e 63 95
e 63 100
e 63 109
e 63 117
e 63 119
e 63 120
e 63 121
e 63 126
e 63 129
e 63 136
e 64 86
e 64 90
e 64 91
e 64 96
e 64 108
e 64 114
e 64 117
e 64 118
e 64 120
e 64 123
e 64 127
e 64 137
e 65 97
e 65 101
e 65 103
e 65 106
e 65 115
e 65 117
e 65 118
e 65 126
e 65 136
e 65 139
e 66 81
e 66 84
e 66 89
e 66 91
e 66 92
e 66 95
e 66 96
e 66 104
e 66 105
e 66 113
e 66 118
e 66 120
e 66 129
e 66 138
e 66 140
e 67 81
e 67 86
e 67 89
e 67 92
e 67 102
e 67 106
e 67 108
e 67 111
e 67 113
e 67 115
e 67 120
e 67 122
e 67 128
e 67 129
e 67 137
e 68 86
e 68 87
e 68 88
e 68 89
e 68 96
e 68 98
e 68 100
e 68 107
e 68 116
e 68 119
e 68 122
e 68 129
e 68 130
e 68 133
e 68 136
e 68 139
e 69 81
e 69 88
e 69 94
e 69 95
e 69 97
e 69 98
e 69 100
e 69 102
e 69 104
e 69 106
e 69 107
e 69 108
e 69 111
e 69 113
e 69 116
e 69 122
e 69 124
e 69 129
e 69 133
e 69 134
e 69 139
e 70 87
e 70 95
e 70 96
e 70 99
e 70 102
e 70 106
e 70 107
e 70 111
e 70 113
e 70 114
e 70 121
e 70 127
e 70 129
e 70 137
e 71 81
e 71 83
e 71 85
e 71 87
e 71 88
e 71 91
e 71 93
e 71 98
e 71 102
e 71 104
e 71 115
e 71 124
e 71 127
e 71 128
e 71 132
e 71 135
e 71 136
e 71 140
e 72 82
e 72 90
e 72 101
e 72 103
e 72 108
e 72 120
e 72 121
e 72 123
e 72 124
e 72 127
e 72 128
e 72 131
e 72 133
e 72 135
e 72 136
e 72 139
e 72 140
e 73 82
e 73 85
e 73 88
e 73 89
e 73 92
e 73 97
e 73 98
e 73 103
e 73 104
e 73 108
e 73 113
e 73 114
e 73 115
e 73 116
e 73 119
e 73 132
e 73 133
e 73 134
e 73 136
e 73 139
e 74 87
e 74 89
e 74 94
e 74 106
e 74 122
e 74 128
e 74 130
e 74 135
e 74 136
e 75 81
e 75 83
e 75 93
e 75 111
e 75 116
e 75 122
e 75 124
e 75 125
e 75 126
e 75 129
e 75 133
e 75 139
e 76 81
e 76 82
e 76 88
e 76 92
e 76 94
e 76 99
e 76 106
e 76 118
e 76 135
e 76 137
e 76 139
e 77 81
e 77 86
e 77 89
e 77 92
e 77 99
e 77 107
e 77 108
e 77 111
e 77 116
e 77 121
e 77 122
e 77 128
e 77 131
e 77 139
e 77 140
e 78 85
e 78 87
e 78 91
e 78 98
e 78 99
e 78 107
e 78 109
e 78 110
e 78 113
e 78 118
e 78 129
e 78 135
e 78 137
e 79 90
e 79 91
e 79 98
e 79 102
e 79 107
e 79 109
e 79 110
e 79 111
e 79 114
e 79 115
e 79 119
e 79 120
e 79 123
e 79 128
e 79 136
e 79 139
e 80 81
e 80 83
e 80 86
e 80 87
e 80 89
e 80 93
e 80 113
e 80 118
e 80 127
e 80 139
e 81 101
e 81 103
e 81 107
e 81 113
e 81 117
e 81 120
e 81 121
e 81 122
e 81 129
e 81 137
e 81 139
e 81 140
e 82 103
e 82 104
e 82 105
e 82 109
e 82 111
e 82 116
e 82 119
e 82 121
e 82 123
e 82 126
e 82 128
e 82 131
e 82 134
e 82 136
e 82 137
e 83 103
e 83 113
e 83 116
e 83 120
e 83 121
e 83 123
e 83 129
e 83 130
e 83 132
e 83 140
e 84 109
e 84 110
e 84 111
e 84 112
e 84 115
e 84 118
e 84 119
e 84 127
e 84 131
e 84 134
e 84 136
e 85 106
e 85 108
e 85 112
e 85 118
e 85 119
e 85 121
e 85 130
e 85 132
e 85 139
e 86 103
e 86 105
e 86 108
e 86 109
e 86 113
e 86 117
e 86 121
e 86 123
e 86 124
e 86 125
e 86 126
e 86 128
e 86 129
e 86 130
e 86 131
e 86 137
e 87 110
e 87 114
e 87 116
e 87 119
e 88 102
e 88 103
e 88 105
e 88 109
e 88 113
e 88 114
e 88 118
e 88 119
e 88 130
e 88 133
e 88 135
e 88 139
e 89 103
e 89 104
e 89 109
e 89 118
e 89 120
e 89 122
e 89 124
e 89 127
e 89 135
e 89 139
e 90 103
e 90 107
e 90 111
e 90 117
e 90 122
e 90 129
e 90 134
e 90 138
e 90 139
e 91 104
e 91 108
e 91 109
e 91 112
e 91 119
e 91 130
e 91 133
e 91 140
e 92 102
e 92 109
e 92 116
e 92 125
e 92 127
e 92 134
e 92 139
e 92 140
e 93 104
e 93 105
e 93 107
e 93 110
e 93 114
e 93 121
e 93 128
e 93 133
e 93 135
e 93 139
e 93 140
e 94 101
e 94 107
e 94 109
e 94 115
e 94 116
e 94 119
e 94 121
e 94 123
e 94 127
e 94 133
e 94 139
e 95 109
e 95 110
e 95 111
e 95 121
e 95 122
e 95 128
e 95 129
e 95 140
e 96 109
e 96 113
e 96 117
e 96 118
e 96 119
e 96 128
e 96 133
e 97 103
e 97 105
e 97 106
e 97 111
e 97 113
e 97 123
e 97 136
e 97 140
e 98 101
e 98 105
e 98 106
e 98 110
e 98 116
e 98 126
e 99 101
e 99 107
e 99 110
e 99 112
e 99 119
e 99 129
e 99 131
e 99 132
e 99 135
e 99 137
e 100 103
e 100 104
e 100 108
e 100 116
e 100 125
e 100 126
e 100 130
e 100 131
e 100 135
e 100 139
e 100 140
e 101 121
e 101 123
e 101 127
e 101 132
e 101 133
e 101 134
e 101 137
e 101 140
e 102 122
e 102 124
e 102 128
e 102 133
e 102 136
e 102 139
e 103 124
e 103 126
e 103 129
e 104 122
e 104 138
e 105 122
e 105 126
e 105 129
e 106 121
e 106 129
e 106 133
e 106 135
e 106 136
e 106 138
e 106 139
e 106 140
e 107 121
e 107 126
e 107 129
e 107 134
e 108 123
e 108 126
e 108 131
e 109 123
e 109 128
e 109 133
e 109 135
e 111 123
e 111 125
e 111 131
e 111 133
e 112 124
e 112 125
e 112 128
e 112 137
e 112 138
e 113 125
e 113 131
e 113 134
e 114 125
e 114 130
e 114 134
e 114 140
e 115 126
e 115 127
e 115 131
e 115 132
e 115 136
e 115 137
e 116 121
e 116 123
e 116 134
e 116 140
e 117 124
e 117 126
e 117 131
e 117 133
e 117 135
e 117 137
e 118 123
e 118 133
e 118 137
e 118 139
e 118 140
e 119 126
e 119 128
e 119 133
e 119 136
e 119 137
e 120 121
e 120 122
e 120 131
e 120 132
e 120 134
e 120 135
e 120 138
