c FILE: balanced_graphs/balanced_60_3_50_4.col
c
c DESCRIPTION: Random balanced graph, 60 nodes,
c              partitions 3
c              edge probability 0.5
c
c G(60,3,0.5) graph
c number of vertices : 60
c max number of edges: 1770
c edge probability   : 0.5
c
c           Graph Stats
c number of vertices  : 60
c nonisolated vertices: 60
c number of edges     : 607
c edge density        : 0.3429
c max degree          : 26
c avg degree          : 20.23
c min degree          : 14
c
p col 60 607
e 1 23
e 1 24
e 1 26
e 1 27
e 1 28
e 1 29
e 1 32
e 1 34
e 1 35
e 1 37
e 1 38
e 1 40
e 1 41
e 1 42
e 1 44
e 1 49
e 1 50
e 1 51
e 1 52
e 1 54
e 1 57
e 1 59
e 1 60
e 2 22
e 2 23
e 2 24
e 2 26
e 2 29
e 2 31
e 2 33
e 2 36
e 2 39
e 2 45
e 2 46
e 2 47
e 2 48
e 2 49
e 2 53
e 2 54
e 2 55
e 2 57
e 2 58
e 3 23
e 3 24
e 3 25
e 3 29
e 3 31
e 3 32
e 3 33
e 3 35
e 3 36
e 3 38
e 3 41
e 3 42
e 3 44
e 3 52
e 3 53
e 3 56
e 3 57
e 3 58
e 3 59
e 3 60
e 4 22
e 4 23
e 4 24
e 4 25
e 4 26
e 4 28
e 4 29
e 4 30
e 4 31
e 4 41
e 4 42
e 4 44
e 4 46
e 4 47
e 4 48
e 4 49
e 4 51
e 4 52
e 4 54
e 4 56
e 4 57
e 4 58
e 5 22
e 5 23
e 5 24
e 5 26
e 5 27
e 5 29
e 5 31
e 5 33
e 5 35
e 5 36
e 5 37
e 5 38
e 5 41
e 5 43
e 5 44
e 5 48
e 5 50
e 5 53
e 5 55
e 5 56
e 5 57
e 5 60
e 6 22
e 6 23
e 6 26
e 6 28
e 6 31
e 6 35
e 6 36
e 6 40
e 6 41
e 6 42
e 6 45
e 6 46
e 6 48
e 6 51
e 6 53
e 6 54
e 6 55
e 6 56
e 6 58
e 7 21
e 7 23
e 7 24
e 7 28
e 7 30
e 7 33
e 7 36
e 7 37
e 7 43
e 7 46
e 7 47
e 7 48
e 7 49
e 7 50
e 7 52
e 7 53
e 7 54
e 7 55
e 7 56
e 7 57
e 7 58
e 8 26
e 8 27
e 8 28
e 8 30
e 8 31
e 8 34
e 8 35
e 8 37
e 8 39
e 8 40
e 8 41
e 8 43
e 8 45
e 8 46
e 8 47
e 8 49
e 8 51
e 8 52
e 8 54
e 8 57
e 9 21
e 9 22
e 9 25
e 9 26
e 9 28
e 9 29
e 9 30
e 9 33
e 9 34
e 9 37
e 9 38
e 9 39
e 9 41
e 9 42
e 9 43
e 9 44
e 9 53
e 9 55
e 9 57
e 9 58
e 10 21
e 10 24
e 10 25
e 10 29
e 10 30
e 10 31
e 10 32
e 10 35
e 10 37
e 10 38
e 10 44
e 10 45
e 10 46
e 10 47
e 10 48
e 10 50
e 10 52
e 10 57
e 10 58
e 11 22
e 11 24
e 11 28
e 11 32
e 11 36
e 11 37
e 11 38
e 11 40
e 11 42
e 11 43
e 11 45
e 11 46
e 11 48
e 11 49
e 11 50
e 11 51
e 11 52
e 11 53
e 11 54
e 11 55
e 11 59
e 11 60
e 12 24
e 12 25
e 12 27
e 12 28
e 12 31
e 12 32
e 12 33
e 12 34
e 12 35
e 12 36
e 12 39
e 12 40
e 12 41
e 12 42
e 12 44
e 12 46
e 12 47
e 12 49
e 12 52
e 12 58
e 12 59
e 12 60
e 13 21
e 13 22
e 13 23
e 13 26
e 13 27
e 13 28
e 13 29
e 13 30
e 13 31
e 13 34
e 13 35
e 13 36
e 13 37
e 13 39
e 13 44
e 13 46
e 13 47
e 13 48
e 13 51
e 13 53
e 13 57
e 13 58
e 13 59
e 13 60
e 14 21
e 14 22
e 14 23
e 14 25
e 14 26
e 14 27
e 14 28
e 14 29
e 14 32
e 14 33
e 14 39
e 14 41
e 14 42
e 14 45
e 14 46
e 14 48
e 14 51
e 14 52
e 14 55
e 14 57
e 14 59
e 15 23
e 15 26
e 15 27
e 15 30
e 15 32
e 15 35
e 15 36
e 15 37
e 15 39
e 15 41
e 15 42
e 15 43
e 15 44
e 15 45
e 15 47
e 15 49
e 15 51
e 15 52
e 15 54
e 15 56
e 15 57
e 15 58
e 15 59
e 16 23
e 16 24
e 16 26
e 16 27
e 16 28
e 16 30
e 16 31
e 16 32
e 16 33
e 16 38
e 16 41
e 16 42
e 16 43
e 16 44
e 16 46
e 16 47
e 16 49
e 16 52
e 16 53
e 16 56
e 16 57
e 16 58
e 16 59
e 16 60
e 17 24
e 17 26
e 17 28
e 17 34
e 17 35
e 17 38
e 17 39
e 17 41
e 17 42
e 17 44
e 17 45
e 17 47
e 17 48
e 17 54
e 17 55
e 17 60
e 18 26
e 18 29
e 18 31
e 18 32
e 18 34
e 18 36
e 18 37
e 18 39
e 18 40
e 18 42
e 18 43
e 18 44
e 18 45
e 18 47
e 18 49
e 18 50
e 18 52
e 18 56
e 18 58
e 18 60
e 19 22
e 19 24
e 19 27
e 19 31
e 19 33
e 19 41
e 19 45
e 19 48
e 19 51
e 19 54
e 19 55
e 19 56
e 19 57
e 19 58
e 19 59
e 20 23
e 20 26
e 20 29
e 20 30
e 20 31
e 20 32
e 20 33
e 20 34
e 20 39
e 20 40
e 20 41
e 20 43
e 20 44
e 20 46
e 20 47
e 20 48
e 20 49
e 20 52
e 20 53
e 20 56
e 20 57
e 21 42
e 21 43
e 21 47
e 21 48
e 21 49
e 21 50
e 21 51
e 21 53
e 21 56
e 21 58
e 22 41
e 22 42
e 22 43
e 22 44
e 22 45
e 22 50
e 22 51
e 22 53
e 22 54
e 22 57
e 22 59
e 22 60
e 23 41
e 23 42
e 23 43
e 23 44
e 23 46
e 23 49
e 23 52
e 23 53
e 23 56
e 23 57
e 23 59
e 23 60
e 24 41
e 24 42
e 24 43
e 24 45
e 24 47
e 24 50
e 24 52
e 24 55
e 24 56
e 24 60
e 25 41
e 25 44
e 25 45
e 25 46
e 25 47
e 25 48
e 25 49
e 25 52
e 25 54
e 25 56
e 26 41
e 26 42
e 26 43
e 26 44
e 26 45
e 26 48
e 26 49
e 26 52
e 26 53
e 26 56
e 26 57
e 26 59
e 27 45
e 27 48
e 27 49
e 27 54
e 27 57
e 27 58
e 28 42
e 28 45
e 28 47
e 28 49
e 28 51
e 28 52
e 28 53
e 28 54
e 28 55
e 28 57
e 28 60
e 29 43
e 29 45
e 29 46
e 29 49
e 29 50
e 29 59
e 30 43
e 30 44
e 30 47
e 30 49
e 30 50
e 30 51
e 30 52
e 30 53
e 30 55
e 31 41
e 31 42
e 31 43
e 31 44
e 31 46
e 31 49
e 31 51
e 31 53
e 31 54
e 31 56
e 32 42
e 32 44
e 32 46
e 32 47
e 32 51
e 32 57
e 32 60
e 33 41
e 33 44
e 33 46
e 33 51
e 33 52
e 33 53
e 33 54
e 33 56
e 33 60
e 34 41
e 34 42
e 34 46
e 34 49
e 34 51
e 34 53
e 34 57
e 34 58
e 34 60
e 35 43
e 35 45
e 35 46
e 35 47
e 35 52
e 35 53
e 35 54
e 35 55
e 35 57
e 35 60
e 36 41
e 36 43
e 36 44
e 36 45
e 36 46
e 36 48
e 36 49
e 36 50
e 36 53
e 36 54
e 36 55
e 36 59
e 36 60
e 37 41
e 37 45
e 37 46
e 37 47
e 37 49
e 37 50
e 37 52
e 37 54
e 37 56
e 37 58
e 37 60
e 38 42
e 38 46
e 38 47
e 38 48
e 38 50
e 38 53
e 38 55
e 38 60
e 39 43
e 39 44
e 39 45
e 39 46
e 39 49
e 39 51
e 39 52
e 39 55
e 39 57
e 40 43
e 40 44
e 40 45
e 40 46
e 40 47
e 40 48
e 40 52
e 40 55
e 40 56
e 40 58
