c FILE: balanced_graphs/balanced_60_3_75_1.col
c
c DESCRIPTION: Random balanced graph, 60 nodes,
c              partitions 3
c              edge probability 0.75
c
c G(60,3,0.75) graph
c number of vertices : 60
c max number of edges: 1770
c edge probability   : 0.75
c
c           Graph Stats
c number of vertices  : 60
c nonisolated vertices: 60
c number of edges     : 922
c edge density        : 0.5209
c max degree          : 37
c avg degree          : 30.73
c min degree          : 24
c
p col 60 922
e 1 21
e 1 22
e 1 24
e 1 25
e 1 26
e 1 28
e 1 29
e 1 30
e 1 33
e 1 35
e 1 36
e 1 37
e 1 38
e 1 39
e 1 40
e 1 41
e 1 43
e 1 44
e 1 48
e 1 50
e 1 51
e 1 53
e 1 54
e 1 55
e 1 56
e 1 58
e 1 59
e 2 22
e 2 25
e 2 26
e 2 27
e 2 28
e 2 30
e 2 31
e 2 32
e 2 34
e 2 35
e 2 37
e 2 39
e 2 41
e 2 42
e 2 43
e 2 44
e 2 46
e 2 47
e 2 48
e 2 51
e 2 52
e 2 53
e 2 54
e 2 55
e 2 59
e 2 60
e 3 21
e 3 22
e 3 23
e 3 24
e 3 25
e 3 26
e 3 28
e 3 29
e 3 30
e 3 31
e 3 32
e 3 33
e 3 34
e 3 36
e 3 37
e 3 40
e 3 41
e 3 42
e 3 44
e 3 45
e 3 47
e 3 48
e 3 49
e 3 50
e 3 51
e 3 52
e 3 53
e 3 54
e 3 55
e 3 56
e 3 60
e 4 21
e 4 24
e 4 26
e 4 27
e 4 28
e 4 29
e 4 30
e 4 31
e 4 32
e 4 33
e 4 34
e 4 36
e 4 40
e 4 41
e 4 42
e 4 43
e 4 44
e 4 45
e 4 46
e 4 47
e 4 48
e 4 49
e 4 50
e 4 51
e 4 52
e 4 53
e 4 54
e 4 55
e 4 58
e 4 59
e 4 60
e 5 21
e 5 22
e 5 23
e 5 24
e 5 25
e 5 27
e 5 28
e 5 29
e 5 30
e 5 31
e 5 33
e 5 34
e 5 36
e 5 39
e 5 40
e 5 41
e 5 44
e 5 45
e 5 46
e 5 47
e 5 48
e 5 50
e 5 52
e 5 54
e 5 56
e 5 57
e 5 58
e 5 60
e 6 22
e 6 23
e 6 24
e 6 25
e 6 26
e 6 29
e 6 30
e 6 31
e 6 32
e 6 33
e 6 34
e 6 35
e 6 38
e 6 39
e 6 40
e 6 42
e 6 43
e 6 45
e 6 46
e 6 47
e 6 49
e 6 52
e 6 53
e 6 54
e 6 55
e 6 56
e 6 57
e 6 59
e 6 60
e 7 21
e 7 22
e 7 24
e 7 26
e 7 27
e 7 33
e 7 34
e 7 35
e 7 36
e 7 40
e 7 41
e 7 42
e 7 43
e 7 44
e 7 45
e 7 46
e 7 47
e 7 50
e 7 51
e 7 52
e 7 53
e 7 54
e 7 56
e 7 57
e 7 58
e 7 59
e 7 60
e 8 21
e 8 23
e 8 24
e 8 26
e 8 27
e 8 29
e 8 30
e 8 31
e 8 32
e 8 33
e 8 35
e 8 37
e 8 39
e 8 40
e 8 41
e 8 42
e 8 45
e 8 46
e 8 47
e 8 48
e 8 49
e 8 50
e 8 51
e 8 52
e 8 53
e 8 55
e 8 56
e 8 57
e 8 58
e 8 59
e 9 21
e 9 22
e 9 23
e 9 24
e 9 25
e 9 26
e 9 27
e 9 28
e 9 29
e 9 30
e 9 31
e 9 32
e 9 33
e 9 34
e 9 36
e 9 38
e 9 39
e 9 40
e 9 41
e 9 42
e 9 43
e 9 44
e 9 45
e 9 46
e 9 47
e 9 49
e 9 50
e 9 51
e 9 52
e 9 53
e 9 54
e 9 55
e 9 56
e 9 57
e 9 60
e 10 22
e 10 23
e 10 25
e 10 26
e 10 27
e 10 28
e 10 29
e 10 30
e 10 31
e 10 35
e 10 36
e 10 37
e 10 38
e 10 40
e 10 41
e 10 44
e 10 45
e 10 46
e 10 47
e 10 48
e 10 50
e 10 51
e 10 52
e 10 53
e 10 54
e 10 55
e 10 56
e 10 58
e 10 59
e 10 60
e 11 21
e 11 22
e 11 24
e 11 25
e 11 26
e 11 29
e 11 31
e 11 32
e 11 33
e 11 34
e 11 35
e 11 36
e 11 37
e 11 38
e 11 40
e 11 41
e 11 42
e 11 43
e 11 44
e 11 45
e 11 46
e 11 47
e 11 48
e 11 50
e 11 51
e 11 52
e 11 53
e 11 54
e 11 56
e 11 57
e 11 58
e 11 60
e 12 21
e 12 22
e 12 23
e 12 24
e 12 25
e 12 26
e 12 28
e 12 29
e 12 30
e 12 32
e 12 33
e 12 34
e 12 35
e 12 36
e 12 37
e 12 38
e 12 39
e 12 40
e 12 41
e 12 42
e 12 43
e 12 44
e 12 46
e 12 47
e 12 51
e 12 53
e 12 54
e 12 55
e 12 56
e 12 57
e 12 58
e 12 59
e 13 21
e 13 22
e 13 23
e 13 24
e 13 25
e 13 26
e 13 27
e 13 28
e 13 29
e 13 30
e 13 31
e 13 32
e 13 34
e 13 35
e 13 37
e 13 38
e 13 39
e 13 40
e 13 42
e 13 44
e 13 45
e 13 46
e 13 47
e 13 49
e 13 50
e 13 51
e 13 52
e 13 53
e 13 54
e 13 55
e 13 56
e 13 58
e 14 21
e 14 22
e 14 23
e 14 24
e 14 26
e 14 27
e 14 28
e 14 29
e 14 30
e 14 31
e 14 32
e 14 34
e 14 35
e 14 36
e 14 37
e 14 39
e 14 40
e 14 41
e 14 43
e 14 45
e 14 47
e 14 48
e 14 49
e 14 50
e 14 51
e 14 52
e 14 54
e 14 55
e 14 56
e 14 58
e 14 59
e 14 60
e 15 21
e 15 22
e 15 24
e 15 25
e 15 26
e 15 27
e 15 28
e 15 30
e 15 33
e 15 35
e 15 36
e 15 37
e 15 38
e 15 39
e 15 40
e 15 41
e 15 42
e 15 43
e 15 44
e 15 45
e 15 46
e 15 47
e 15 48
e 15 50
e 15 51
e 15 53
e 15 54
e 15 56
e 15 57
e 15 58
e 15 60
e 16 21
e 16 23
e 16 24
e 16 25
e 16 27
e 16 28
e 16 29
e 16 30
e 16 32
e 16 33
e 16 34
e 16 35
e 16 36
e 16 37
e 16 38
e 16 39
e 16 40
e 16 41
e 16 43
e 16 44
e 16 45
e 16 48
e 16 49
e 16 50
e 16 51
e 16 52
e 16 54
e 16 55
e 16 58
e 16 59
e 16 60
e 17 21
e 17 22
e 17 23
e 17 24
e 17 25
e 17 26
e 17 27
e 17 28
e 17 29
e 17 30
e 17 31
e 17 32
e 17 33
e 17 36
e 17 37
e 17 38
e 17 39
e 17 41
e 17 42
e 17 43
e 17 44
e 17 45
e 17 47
e 17 48
e 17 49
e 17 51
e 17 52
e 17 53
e 17 55
e 17 56
e 17 57
e 17 58
e 17 59
e 18 21
e 18 22
e 18 23
e 18 24
e 18 26
e 18 27
e 18 28
e 18 29
e 18 32
e 18 34
e 18 35
e 18 36
e 18 37
e 18 38
e 18 39
e 18 40
e 18 41
e 18 43
e 18 44
e 18 45
e 18 46
e 18 47
e 18 49
e 18 51
e 18 52
e 18 53
e 18 55
e 18 56
e 18 57
e 18 58
e 18 59
e 19 22
e 19 23
e 19 25
e 19 26
e 19 27
e 19 28
e 19 29
e 19 30
e 19 31
e 19 32
e 19 33
e 19 34
e 19 35
e 19 36
e 19 37
e 19 38
e 19 39
e 19 42
e 19 43
e 19 44
e 19 45
e 19 46
e 19 47
e 19 49
e 19 50
e 19 52
e 19 56
e 19 58
e 19 59
e 19 60
e 20 21
e 20 23
e 20 24
e 20 26
e 20 27
e 20 28
e 20 29
e 20 31
e 20 32
e 20 33
e 20 34
e 20 35
e 20 36
e 20 37
e 20 38
e 20 40
e 20 41
e 20 43
e 20 44
e 20 45
e 20 47
e 20 48
e 20 49
e 20 51
e 20 52
e 20 53
e 20 54
e 20 55
e 20 56
e 20 57
e 20 58
e 20 59
e 21 41
e 21 42
e 21 46
e 21 48
e 21 49
e 21 50
e 21 51
e 21 52
e 21 53
e 21 54
e 21 55
e 21 56
e 21 59
e 22 41
e 22 42
e 22 43
e 22 44
e 22 45
e 22 46
e 22 47
e 22 49
e 22 50
e 22 51
e 22 52
e 22 53
e 22 54
e 22 55
e 22 57
e 22 58
e 23 41
e 23 42
e 23 43
e 23 44
e 23 45
e 23 47
e 23 48
e 23 49
e 23 51
e 23 54
e 23 55
e 23 56
e 23 58
e 23 59
e 23 60
e 24 41
e 24 42
e 24 44
e 24 46
e 24 47
e 24 48
e 24 49
e 24 50
e 24 51
e 24 52
e 24 53
e 24 55
e 24 56
e 24 57
e 24 58
e 24 59
e 24 60
e 25 41
e 25 42
e 25 44
e 25 45
e 25 46
e 25 47
e 25 48
e 25 50
e 25 51
e 25 53
e 25 54
e 25 55
e 25 56
e 25 57
e 25 58
e 25 60
e 26 41
e 26 42
e 26 44
e 26 45
e 26 47
e 26 48
e 26 49
e 26 50
e 26 51
e 26 52
e 26 53
e 26 54
e 26 56
e 26 57
e 27 41
e 27 42
e 27 43
e 27 44
e 27 45
e 27 46
e 27 47
e 27 48
e 27 50
e 27 51
e 27 52
e 27 53
e 27 54
e 27 55
e 27 56
e 27 57
e 27 58
e 27 59
e 27 60
e 28 41
e 28 42
e 28 44
e 28 46
e 28 47
e 28 48
e 28 49
e 28 50
e 28 51
e 28 52
e 28 53
e 28 54
e 28 55
e 28 58
e 28 59
e 28 60
e 29 41
e 29 42
e 29 43
e 29 44
e 29 47
e 29 48
e 29 49
e 29 50
e 29 51
e 29 52
e 29 53
e 29 54
e 29 55
e 29 58
e 29 59
e 29 60
e 30 41
e 30 45
e 30 46
e 30 49
e 30 50
e 30 51
e 30 53
e 30 54
e 30 55
e 30 57
e 30 58
e 30 59
e 30 60
e 31 41
e 31 45
e 31 46
e 31 47
e 31 48
e 31 50
e 31 52
e 31 53
e 31 54
e 31 55
e 31 57
e 31 58
e 31 59
e 31 60
e 32 41
e 32 42
e 32 43
e 32 44
e 32 45
e 32 48
e 32 49
e 32 50
e 32 51
e 32 52
e 32 53
e 32 54
e 32 55
e 32 56
e 32 57
e 32 58
e 32 59
e 32 60
e 33 41
e 33 42
e 33 43
e 33 45
e 33 46
e 33 47
e 33 48
e 33 49
e 33 54
e 33 55
e 33 56
e 33 57
e 33 58
e 33 59
e 33 60
e 34 41
e 34 43
e 34 45
e 34 46
e 34 47
e 34 48
e 34 49
e 34 50
e 34 51
e 34 53
e 34 55
e 34 56
e 34 57
e 34 59
e 34 60
e 35 41
e 35 42
e 35 43
e 35 45
e 35 47
e 35 48
e 35 49
e 35 50
e 35 52
e 35 53
e 35 55
e 35 56
e 35 60
e 36 41
e 36 42
e 36 43
e 36 45
e 36 46
e 36 47
e 36 48
e 36 52
e 36 55
e 36 56
e 36 57
e 36 58
e 36 60
e 37 41
e 37 43
e 37 44
e 37 45
e 37 46
e 37 47
e 37 48
e 37 49
e 37 50
e 37 51
e 37 52
e 37 53
e 37 54
e 37 55
e 37 56
e 37 57
e 37 59
e 37 60
e 38 41
e 38 42
e 38 44
e 38 45
e 38 46
e 38 47
e 38 48
e 38 49
e 38 50
e 38 51
e 38 52
e 38 53
e 38 58
e 38 60
e 39 41
e 39 42
e 39 43
e 39 44
e 39 45
e 39 46
e 39 47
e 39 48
e 39 49
e 39 50
e 39 51
e 39 52
e 39 53
e 39 54
e 39 55
e 39 56
e 39 57
e 39 58
e 39 59
e 39 60
e 40 41
e 40 42
e 40 43
e 40 44
e 40 45
e 40 46
e 40 47
e 40 50
e 40 51
e 40 52
e 40 53
e 40 54
e 40 55
e 40 56
e 40 58
e 40 59
e 40 60
