c FILE: balanced_graphs/balanced_100_5_25_5.col
c
c DESCRIPTION: Random balanced graph, 100 nodes,
c              partitions 5
c              edge probability 0.25
c
c G(100,5,0.25) graph
c number of vertices : 100
c max number of edges: 4950
c edge probability   : 0.25
c
c           Graph Stats
c number of vertices  : 100
c nonisolated vertices: 100
c number of edges     : 1047
c edge density        : 0.2115
c max degree          : 32
c avg degree          : 20.94
c min degree          : 11
c
p col 100 1047
e 1 27
e 1 29
e 1 30
e 1 31
e 1 45
e 1 54
e 1 57
e 1 61
e 1 65
e 1 68
e 1 75
e 1 76
e 1 79
e 1 85
e 1 87
e 1 89
e 1 95
e 1 97
e 1 98
e 1 100
e 2 24
e 2 25
e 2 33
e 2 40
e 2 45
e 2 46
e 2 52
e 2 57
e 2 58
e 2 60
e 2 66
e 2 73
e 2 78
e 2 80
e 2 90
e 2 91
e 2 97
e 2 99
e 2 100
e 3 22
e 3 24
e 3 28
e 3 29
e 3 33
e 3 38
e 3 43
e 3 44
e 3 50
e 3 52
e 3 53
e 3 54
e 3 58
e 3 59
e 3 69
e 3 72
e 3 85
e 3 92
e 3 97
e 3 100
e 4 22
e 4 26
e 4 29
e 4 30
e 4 38
e 4 45
e 4 49
e 4 50
e 4 51
e 4 57
e 4 59
e 4 61
e 4 64
e 4 71
e 4 75
e 4 76
e 4 80
e 4 81
e 4 84
e 4 88
e 4 95
e 5 23
e 5 24
e 5 31
e 5 37
e 5 46
e 5 47
e 5 50
e 5 61
e 5 64
e 5 66
e 5 69
e 5 71
e 5 72
e 5 74
e 5 76
e 5 90
e 5 94
e 5 97
e 5 99
e 6 21
e 6 23
e 6 29
e 6 35
e 6 42
e 6 46
e 6 50
e 6 53
e 6 64
e 6 65
e 6 69
e 6 74
e 6 84
e 6 88
e 6 95
e 6 98
e 7 22
e 7 26
e 7 30
e 7 34
e 7 39
e 7 40
e 7 42
e 7 45
e 7 47
e 7 48
e 7 50
e 7 55
e 7 57
e 7 58
e 7 62
e 7 66
e 7 67
e 7 68
e 7 71
e 7 74
e 7 78
e 7 79
e 7 82
e 7 87
e 7 88
e 7 93
e 7 95
e 7 96
e 7 100
e 8 22
e 8 26
e 8 27
e 8 28
e 8 29
e 8 32
e 8 36
e 8 37
e 8 43
e 8 44
e 8 48
e 8 50
e 8 54
e 8 57
e 8 58
e 8 60
e 8 64
e 8 68
e 8 73
e 8 76
e 8 77
e 8 80
e 8 81
e 8 83
e 8 84
e 8 87
e 8 88
e 8 90
e 8 93
e 8 95
e 8 98
e 8 99
e 9 24
e 9 28
e 9 30
e 9 33
e 9 38
e 9 41
e 9 42
e 9 49
e 9 53
e 9 56
e 9 57
e 9 62
e 9 74
e 9 76
e 9 80
e 9 81
e 9 87
e 9 93
e 9 98
e 10 21
e 10 22
e 10 26
e 10 28
e 10 29
e 10 30
e 10 35
e 10 39
e 10 42
e 10 46
e 10 49
e 10 55
e 10 56
e 10 66
e 10 67
e 10 69
e 10 70
e 10 73
e 10 81
e 10 83
e 10 84
e 10 86
e 10 89
e 10 92
e 10 97
e 11 22
e 11 23
e 11 27
e 11 28
e 11 29
e 11 31
e 11 36
e 11 39
e 11 44
e 11 47
e 11 53
e 11 58
e 11 63
e 11 69
e 11 72
e 11 77
e 11 78
e 11 80
e 11 81
e 11 87
e 11 89
e 11 92
e 11 96
e 11 97
e 12 23
e 12 26
e 12 29
e 12 31
e 12 40
e 12 46
e 12 48
e 12 58
e 12 68
e 12 76
e 12 77
e 12 81
e 12 82
e 12 92
e 13 23
e 13 25
e 13 35
e 13 45
e 13 50
e 13 58
e 13 59
e 13 61
e 13 64
e 13 65
e 13 67
e 13 70
e 13 72
e 13 83
e 13 85
e 13 89
e 13 93
e 14 24
e 14 25
e 14 26
e 14 32
e 14 34
e 14 37
e 14 39
e 14 40
e 14 42
e 14 54
e 14 60
e 14 62
e 14 70
e 14 71
e 14 72
e 14 75
e 14 83
e 14 89
e 14 92
e 14 93
e 14 99
e 15 22
e 15 29
e 15 30
e 15 37
e 15 38
e 15 45
e 15 46
e 15 48
e 15 55
e 15 57
e 15 58
e 15 60
e 15 64
e 15 69
e 15 70
e 15 74
e 15 78
e 15 81
e 15 83
e 15 91
e 15 92
e 15 93
e 15 96
e 16 21
e 16 29
e 16 49
e 16 50
e 16 64
e 16 70
e 16 74
e 16 77
e 16 78
e 16 84
e 16 85
e 16 90
e 16 91
e 16 94
e 16 97
e 17 24
e 17 27
e 17 40
e 17 41
e 17 47
e 17 52
e 17 53
e 17 59
e 17 68
e 17 69
e 17 77
e 17 79
e 17 85
e 17 86
e 17 88
e 17 92
e 17 94
e 17 97
e 17 98
e 18 24
e 18 28
e 18 29
e 18 31
e 18 33
e 18 37
e 18 38
e 18 42
e 18 43
e 18 46
e 18 49
e 18 50
e 18 51
e 18 52
e 18 53
e 18 56
e 18 58
e 18 62
e 18 67
e 18 69
e 18 72
e 18 75
e 18 91
e 18 92
e 18 93
e 18 95
e 18 97
e 18 98
e 19 26
e 19 32
e 19 35
e 19 37
e 19 40
e 19 43
e 19 44
e 19 45
e 19 57
e 19 60
e 19 70
e 19 72
e 19 76
e 19 78
e 19 81
e 19 82
e 19 86
e 19 90
e 19 91
e 19 94
e 19 97
e 19 98
e 19 99
e 20 22
e 20 30
e 20 38
e 20 39
e 20 42
e 20 43
e 20 47
e 20 52
e 20 59
e 20 60
e 20 61
e 20 63
e 20 75
e 20 88
e 20 93
e 20 99
e 20 100
e 21 42
e 21 47
e 21 51
e 21 53
e 21 60
e 21 62
e 21 65
e 21 66
e 21 68
e 21 70
e 21 74
e 21 76
e 21 77
e 21 81
e 21 83
e 21 84
e 21 85
e 21 88
e 21 89
e 21 97
e 22 45
e 22 47
e 22 50
e 22 52
e 22 57
e 22 61
e 22 62
e 22 66
e 22 68
e 22 83
e 22 87
e 22 91
e 22 93
e 22 98
e 23 44
e 23 49
e 23 53
e 23 55
e 23 56
e 23 60
e 23 66
e 23 73
e 23 75
e 23 78
e 23 89
e 23 97
e 23 100
e 24 44
e 24 47
e 24 53
e 24 54
e 24 57
e 24 59
e 24 65
e 24 67
e 24 68
e 24 70
e 24 76
e 24 77
e 24 90
e 24 95
e 24 96
e 24 97
e 25 42
e 25 45
e 25 54
e 25 55
e 25 56
e 25 61
e 25 64
e 25 69
e 25 74
e 25 79
e 25 84
e 25 85
e 25 88
e 25 91
e 25 93
e 25 94
e 25 95
e 26 52
e 26 53
e 26 66
e 26 67
e 26 83
e 26 84
e 26 89
e 26 91
e 27 43
e 27 44
e 27 45
e 27 48
e 27 50
e 27 51
e 27 52
e 27 54
e 27 55
e 27 57
e 27 59
e 27 60
e 27 61
e 27 65
e 27 68
e 27 69
e 27 72
e 27 73
e 27 80
e 27 82
e 27 84
e 27 86
e 27 89
e 27 93
e 27 94
e 27 96
e 27 98
e 28 42
e 28 43
e 28 44
e 28 45
e 28 47
e 28 49
e 28 52
e 28 60
e 28 63
e 28 64
e 28 70
e 28 75
e 28 79
e 28 80
e 28 85
e 28 86
e 28 89
e 28 95
e 29 41
e 29 42
e 29 44
e 29 46
e 29 48
e 29 53
e 29 56
e 29 63
e 29 66
e 29 74
e 29 76
e 29 77
e 29 80
e 29 82
e 29 89
e 29 90
e 29 98
e 30 44
e 30 47
e 30 48
e 30 49
e 30 57
e 30 66
e 30 67
e 30 73
e 30 79
e 30 81
e 30 84
e 30 96
e 30 97
e 31 43
e 31 51
e 31 56
e 31 61
e 31 62
e 31 66
e 31 69
e 31 73
e 31 74
e 31 76
e 31 86
e 31 87
e 31 88
e 31 89
e 31 90
e 31 92
e 31 93
e 31 97
e 31 98
e 31 100
e 32 51
e 32 54
e 32 59
e 32 60
e 32 66
e 32 68
e 32 80
e 32 86
e 32 95
e 32 97
e 33 48
e 33 49
e 33 54
e 33 65
e 33 66
e 33 75
e 33 77
e 33 80
e 33 91
e 33 96
e 33 100
e 34 43
e 34 51
e 34 56
e 34 59
e 34 62
e 34 63
e 34 72
e 34 74
e 34 77
e 34 79
e 34 80
e 34 82
e 34 94
e 34 97
e 34 100
e 35 45
e 35 46
e 35 51
e 35 60
e 35 64
e 35 67
e 35 68
e 35 69
e 35 73
e 35 80
e 35 83
e 35 87
e 35 96
e 36 42
e 36 49
e 36 50
e 36 52
e 36 54
e 36 60
e 36 65
e 36 74
e 36 84
e 37 43
e 37 49
e 37 54
e 37 55
e 37 58
e 37 59
e 37 64
e 37 65
e 37 66
e 37 70
e 37 73
e 37 81
e 37 87
e 37 88
e 37 90
e 37 91
e 37 94
e 38 51
e 38 56
e 38 60
e 38 62
e 38 63
e 38 67
e 38 71
e 38 72
e 38 75
e 38 78
e 38 79
e 38 87
e 38 92
e 38 98
e 39 45
e 39 47
e 39 50
e 39 52
e 39 56
e 39 57
e 39 58
e 39 59
e 39 62
e 39 69
e 39 77
e 39 79
e 39 89
e 39 90
e 39 91
e 39 100
e 40 44
e 40 45
e 40 47
e 40 48
e 40 55
e 40 58
e 40 59
e 40 61
e 40 69
e 40 70
e 40 72
e 40 78
e 40 79
e 40 84
e 40 91
e 40 92
e 41 61
e 41 67
e 41 69
e 41 70
e 41 74
e 41 76
e 41 84
e 41 92
e 41 94
e 42 64
e 42 67
e 42 71
e 42 76
e 42 77
e 42 78
e 42 87
e 42 94
e 42 96
e 42 99
e 43 62
e 43 64
e 43 66
e 43 72
e 43 74
e 43 75
e 43 76
e 43 77
e 43 81
e 43 85
e 43 86
e 43 94
e 44 64
e 44 65
e 44 68
e 44 78
e 44 79
e 44 82
e 44 86
e 44 94
e 44 97
e 45 72
e 45 73
e 45 75
e 45 77
e 45 79
e 45 81
e 45 83
e 45 89
e 45 95
e 45 96
e 45 98
e 45 100
e 46 62
e 46 65
e 46 67
e 46 75
e 46 76
e 46 84
e 46 86
e 46 92
e 46 94
e 46 96
e 47 61
e 47 65
e 47 75
e 47 82
e 47 87
e 47 91
e 47 95
e 47 97
e 47 98
e 47 99
e 47 100
e 48 61
e 48 62
e 48 64
e 48 66
e 48 69
e 48 70
e 48 71
e 48 74
e 48 80
e 48 83
e 48 87
e 48 88
e 48 91
e 48 93
e 48 98
e 48 99
e 48 100
e 49 61
e 49 63
e 49 72
e 49 75
e 49 76
e 49 84
e 49 88
e 49 90
e 49 93
e 49 94
e 49 95
e 49 96
e 49 97
e 49 98
e 49 100
e 50 69
e 50 74
e 50 85
e 50 87
e 50 90
e 50 94
e 50 96
e 51 67
e 51 72
e 51 73
e 51 74
e 51 75
e 51 76
e 51 78
e 51 80
e 51 84
e 51 86
e 51 87
e 51 90
e 51 91
e 51 98
e 51 100
e 52 64
e 52 65
e 52 66
e 52 71
e 52 74
e 52 82
e 52 83
e 52 85
e 52 90
e 52 97
e 52 98
e 53 62
e 53 64
e 53 65
e 53 67
e 53 68
e 53 69
e 53 76
e 53 81
e 53 98
e 54 65
e 54 69
e 54 75
e 54 77
e 54 80
e 54 85
e 54 89
e 54 94
e 54 97
e 54 98
e 55 61
e 55 63
e 55 69
e 55 70
e 55 71
e 55 81
e 55 87
e 55 88
e 55 90
e 55 93
e 55 96
e 56 63
e 56 64
e 56 66
e 56 91
e 56 92
e 56 93
e 56 98
e 56 99
e 57 61
e 57 64
e 57 68
e 57 69
e 57 70
e 57 87
e 57 91
e 57 92
e 57 97
e 58 61
e 58 67
e 58 68
e 58 70
e 58 75
e 58 76
e 58 83
e 58 86
e 58 87
e 58 89
e 58 90
e 58 96
e 59 62
e 59 67
e 59 70
e 59 73
e 59 76
e 59 79
e 59 81
e 59 82
e 59 84
e 59 85
e 59 98
e 59 100
e 60 66
e 60 75
e 60 85
e 60 86
e 60 88
e 60 92
e 61 81
e 61 91
e 61 92
e 61 94
e 61 96
e 62 82
e 62 84
e 62 85
e 62 92
e 62 96
e 62 98
e 63 83
e 63 88
e 63 93
e 63 95
e 63 100
e 64 81
e 64 82
e 64 83
e 64 84
e 64 95
e 64 96
e 64 98
e 64 99
e 65 82
e 65 86
e 65 89
e 65 92
e 65 98
e 66 86
e 66 89
e 66 90
e 66 99
e 67 81
e 67 83
e 67 86
e 67 90
e 67 95
e 68 81
e 68 92
e 68 94
e 68 96
e 68 99
e 69 82
e 69 87
e 69 89
e 69 90
e 69 100
e 70 89
e 70 90
e 71 90
e 71 91
e 71 100
e 72 85
e 72 87
e 72 90
e 72 92
e 72 94
e 72 96
e 72 99
e 73 83
e 73 85
e 73 86
e 73 88
e 73 90
e 73 91
e 74 85
e 74 86
e 74 89
e 74 96
e 74 97
e 74 98
e 75 83
e 75 88
e 75 90
e 75 97
e 76 86
e 76 89
e 76 90
e 76 93
e 76 97
e 77 86
e 77 87
e 77 88
e 77 89
e 77 93
e 78 83
e 78 85
e 78 89
e 78 96
e 78 97
e 78 98
e 78 99
e 79 82
e 79 88
e 79 90
e 79 91
e 79 98
e 80 82
e 80 83
e 80 84
e 80 86
e 80 87
e 80 91
e 80 93
e 80 97
e 80 99
