c FILE: balanced_graphs/balanced_140_7_50_2.col
c
c DESCRIPTION: Random balanced graph, 140 nodes,
c              partitions 7
c              edge probability 0.5
c
c G(140,7,0.5) graph
c number of vertices : 140
c max number of edges: 9730
c edge probability   : 0.5
c
c           Graph Stats
c number of vertices  : 140
c nonisolated vertices: 140
c number of edges     : 4210
c edge density        : 0.4327
c max degree          : 71
c avg degree          : 60.14
c min degree          : 49
c
p col 140 4210
e 1 21
e 1 24
e 1 26
e 1 29
e 1 31
e 1 32
e 1 33
e 1 36
e 1 37
e 1 38
e 1 39
e 1 40
e 1 41
e 1 42
e 1 43
e 1 45
e 1 48
e 1 50
e 1 51
e 1 52
e 1 56
e 1 60
e 1 63
e 1 66
e 1 67
e 1 70
e 1 71
e 1 72
e 1 78
e 1 81
e 1 84
e 1 86
e 1 88
e 1 94
e 1 96
e 1 98
e 1 99
e 1 103
e 1 105
e 1 108
e 1 109
e 1 111
e 1 113
e 1 114
e 1 119
e 1 121
e 1 122
e 1 123
e 1 124
e 1 127
e 1 128
e 1 130
e 1 131
e 1 132
e 1 138
e 1 139
e 2 22
e 2 24
e 2 27
e 2 31
e 2 32
e 2 34
e 2 36
e 2 37
e 2 38
e 2 39
e 2 42
e 2 44
e 2 47
e 2 48
e 2 50
e 2 51
e 2 52
e 2 53
e 2 57
e 2 58
e 2 60
e 2 61
e 2 62
e 2 63
e 2 65
e 2 67
e 2 68
e 2 70
e 2 72
e 2 76
e 2 79
e 2 80
e 2 84
e 2 85
e 2 87
e 2 89
e 2 91
e 2 92
e 2 97
e 2 98
e 2 99
e 2 100
e 2 101
e 2 102
e 2 106
e 2 110
e 2 113
e 2 114
e 2 115
e 2 118
e 2 119
e 2 122
e 2 129
e 2 131
e 2 132
e 2 133
e 2 135
e 2 137
e 2 139
e 3 21
e 3 26
e 3 29
e 3 30
e 3 31
e 3 34
e 3 35
e 3 37
e 3 38
e 3 40
e 3 44
e 3 45
e 3 46
e 3 47
e 3 51
e 3 52
e 3 53
e 3 55
e 3 59
e 3 60
e 3 62
e 3 63
e 3 64
e 3 65
e 3 66
e 3 67
e 3 70
e 3 73
e 3 74
e 3 75
e 3 78
e 3 79
e 3 81
e 3 85
e 3 90
e 3 91
e 3 93
e 3 94
e 3 95
e 3 96
e 3 97
e 3 100
e 3 101
e 3 102
e 3 105
e 3 109
e 3 110
e 3 111
e 3 112
e 3 114
e 3 116
e 3 118
e 3 119
e 3 120
e 3 122
e 3 123
e 3 124
e 3 126
e 3 127
e 3 128
e 3 129
e 3 130
e 3 131
e 3 133
e 3 135
e 3 136
e 3 138
e 3 139
e 3 140
e 4 31
e 4 32
e 4 35
e 4 38
e 4 39
e 4 40
e 4 41
e 4 42
e 4 43
e 4 46
e 4 49
e 4 50
e 4 52
e 4 55
e 4 58
e 4 60
e 4 61
e 4 62
e 4 67
e 4 68
e 4 69
e 4 73
e 4 75
e 4 77
e 4 82
e 4 83
e 4 84
e 4 85
e 4 86
e 4 88
e 4 91
e 4 96
e 4 98
e 4 101
e 4 102
e 4 103
e 4 105
e 4 107
e 4 108
e 4 110
e 4 114
e 4 117
e 4 119
e 4 121
e 4 122
e 4 126
e 4 129
e 4 132
e 4 133
e 4 134
e 4 136
e 4 140
e 5 22
e 5 23
e 5 24
e 5 28
e 5 29
e 5 31
e 5 32
e 5 34
e 5 35
e 5 36
e 5 39
e 5 40
e 5 42
e 5 43
e 5 45
e 5 47
e 5 50
e 5 52
e 5 53
e 5 58
e 5 66
e 5 67
e 5 71
e 5 73
e 5 74
e 5 75
e 5 79
e 5 80
e 5 81
e 5 84
e 5 85
e 5 86
e 5 90
e 5 91
e 5 92
e 5 95
e 5 96
e 5 99
e 5 100
e 5 102
e 5 104
e 5 106
e 5 108
e 5 109
e 5 111
e 5 112
e 5 113
e 5 115
e 5 116
e 5 119
e 5 120
e 5 122
e 5 125
e 5 127
e 5 129
e 5 131
e 5 132
e 5 133
e 5 136
e 5 137
e 5 138
e 5 139
e 6 21
e 6 22
e 6 25
e 6 31
e 6 37
e 6 38
e 6 39
e 6 40
e 6 42
e 6 43
e 6 45
e 6 46
e 6 47
e 6 49
e 6 50
e 6 52
e 6 53
e 6 54
e 6 55
e 6 56
e 6 59
e 6 63
e 6 64
e 6 65
e 6 66
e 6 67
e 6 68
e 6 69
e 6 70
e 6 72
e 6 74
e 6 75
e 6 76
e 6 80
e 6 82
e 6 83
e 6 87
e 6 88
e 6 91
e 6 92
e 6 93
e 6 95
e 6 97
e 6 98
e 6 99
e 6 100
e 6 101
e 6 102
e 6 103
e 6 108
e 6 110
e 6 113
e 6 114
e 6 115
e 6 116
e 6 117
e 6 118
e 6 119
e 6 121
e 6 122
e 6 124
e 6 125
e 6 127
e 6 132
e 6 133
e 6 134
e 6 135
e 6 136
e 6 137
e 6 140
e 7 21
e 7 22
e 7 25
e 7 26
e 7 28
e 7 29
e 7 31
e 7 32
e 7 33
e 7 34
e 7 36
e 7 38
e 7 40
e 7 41
e 7 43
e 7 44
e 7 45
e 7 46
e 7 52
e 7 53
e 7 54
e 7 55
e 7 56
e 7 57
e 7 58
e 7 59
e 7 61
e 7 64
e 7 65
e 7 66
e 7 69
e 7 71
e 7 72
e 7 73
e 7 74
e 7 75
e 7 76
e 7 81
e 7 86
e 7 87
e 7 88
e 7 89
e 7 92
e 7 96
e 7 99
e 7 101
e 7 103
e 7 104
e 7 105
e 7 106
e 7 110
e 7 111
e 7 115
e 7 116
e 7 117
e 7 118
e 7 119
e 7 121
e 7 127
e 7 130
e 7 131
e 7 132
e 7 133
e 7 135
e 7 139
e 7 140
e 8 22
e 8 24
e 8 25
e 8 26
e 8 27
e 8 34
e 8 35
e 8 39
e 8 41
e 8 46
e 8 48
e 8 49
e 8 50
e 8 53
e 8 55
e 8 56
e 8 57
e 8 58
e 8 60
e 8 61
e 8 62
e 8 63
e 8 64
e 8 65
e 8 68
e 8 70
e 8 73
e 8 80
e 8 81
e 8 83
e 8 84
e 8 87
e 8 88
e 8 89
e 8 90
e 8 93
e 8 94
e 8 96
e 8 97
e 8 99
e 8 100
e 8 102
e 8 104
e 8 105
e 8 108
e 8 109
e 8 110
e 8 113
e 8 115
e 8 116
e 8 118
e 8 119
e 8 125
e 8 129
e 8 130
e 8 131
e 8 132
e 8 136
e 8 137
e 8 139
e 9 21
e 9 25
e 9 26
e 9 28
e 9 29
e 9 30
e 9 32
e 9 34
e 9 35
e 9 36
e 9 37
e 9 39
e 9 40
e 9 42
e 9 46
e 9 48
e 9 50
e 9 51
e 9 53
e 9 54
e 9 57
e 9 58
e 9 59
e 9 60
e 9 61
e 9 62
e 9 63
e 9 65
e 9 67
e 9 69
e 9 70
e 9 71
e 9 72
e 9 73
e 9 74
e 9 75
e 9 76
e 9 77
e 9 85
e 9 86
e 9 88
e 9 89
e 9 90
e 9 91
e 9 92
e 9 94
e 9 95
e 9 97
e 9 98
e 9 101
e 9 102
e 9 103
e 9 105
e 9 106
e 9 109
e 9 110
e 9 113
e 9 117
e 9 118
e 9 122
e 9 123
e 9 126
e 9 127
e 9 132
e 9 133
e 9 134
e 9 138
e 9 140
e 10 24
e 10 25
e 10 28
e 10 35
e 10 37
e 10 45
e 10 48
e 10 52
e 10 54
e 10 56
e 10 57
e 10 58
e 10 60
e 10 61
e 10 63
e 10 64
e 10 65
e 10 66
e 10 69
e 10 73
e 10 76
e 10 79
e 10 80
e 10 82
e 10 83
e 10 84
e 10 86
e 10 87
e 10 93
e 10 94
e 10 103
e 10 104
e 10 105
e 10 106
e 10 111
e 10 115
e 10 116
e 10 117
e 10 118
e 10 119
e 10 121
e 10 122
e 10 123
e 10 124
e 10 125
e 10 126
e 10 127
e 10 128
e 10 130
e 10 133
e 10 134
e 10 136
e 10 137
e 10 138
e 11 24
e 11 26
e 11 27
e 11 29
e 11 31
e 11 32
e 11 35
e 11 38
e 11 39
e 11 40
e 11 41
e 11 43
e 11 44
e 11 45
e 11 47
e 11 51
e 11 52
e 11 55
e 11 56
e 11 59
e 11 60
e 11 62
e 11 65
e 11 66
e 11 67
e 11 68
e 11 69
e 11 76
e 11 78
e 11 80
e 11 81
e 11 82
e 11 84
e 11 85
e 11 91
e 11 93
e 11 96
e 11 97
e 11 98
e 11 99
e 11 100
e 11 104
e 11 111
e 11 115
e 11 117
e 11 119
e 11 120
e 11 121
e 11 122
e 11 123
e 11 124
e 11 125
e 11 126
e 11 127
e 11 132
e 11 133
e 11 134
e 11 135
e 11 136
e 11 138
e 11 140
e 12 21
e 12 24
e 12 27
e 12 28
e 12 29
e 12 30
e 12 31
e 12 33
e 12 34
e 12 36
e 12 37
e 12 38
e 12 40
e 12 41
e 12 42
e 12 43
e 12 44
e 12 47
e 12 49
e 12 51
e 12 52
e 12 54
e 12 58
e 12 63
e 12 64
e 12 65
e 12 67
e 12 72
e 12 73
e 12 75
e 12 76
e 12 81
e 12 84
e 12 87
e 12 89
e 12 90
e 12 91
e 12 92
e 12 93
e 12 94
e 12 96
e 12 97
e 12 99
e 12 100
e 12 102
e 12 103
e 12 106
e 12 110
e 12 116
e 12 117
e 12 118
e 12 122
e 12 126
e 12 127
e 12 128
e 12 129
e 12 134
e 12 137
e 12 138
e 12 140
e 13 23
e 13 24
e 13 25
e 13 27
e 13 28
e 13 30
e 13 31
e 13 32
e 13 35
e 13 36
e 13 39
e 13 41
e 13 43
e 13 46
e 13 50
e 13 51
e 13 53
e 13 56
e 13 57
e 13 61
e 13 68
e 13 69
e 13 70
e 13 71
e 13 72
e 13 73
e 13 79
e 13 81
e 13 86
e 13 87
e 13 88
e 13 90
e 13 93
e 13 95
e 13 96
e 13 97
e 13 99
e 13 100
e 13 103
e 13 104
e 13 107
e 13 108
e 13 110
e 13 114
e 13 115
e 13 117
e 13 118
e 13 119
e 13 120
e 13 122
e 13 124
e 13 126
e 13 127
e 13 130
e 13 132
e 13 134
e 13 135
e 13 136
e 13 137
e 13 138
e 13 139
e 13 140
e 14 22
e 14 23
e 14 24
e 14 26
e 14 27
e 14 30
e 14 31
e 14 34
e 14 38
e 14 39
e 14 40
e 14 43
e 14 45
e 14 46
e 14 47
e 14 49
e 14 50
e 14 51
e 14 52
e 14 55
e 14 57
e 14 61
e 14 62
e 14 63
e 14 65
e 14 66
e 14 68
e 14 69
e 14 73
e 14 75
e 14 76
e 14 80
e 14 81
e 14 82
e 14 84
e 14 87
e 14 90
e 14 93
e 14 94
e 14 96
e 14 97
e 14 98
e 14 100
e 14 104
e 14 108
e 14 109
e 14 112
e 14 116
e 14 118
e 14 119
e 14 122
e 14 126
e 14 129
e 14 130
e 14 131
e 14 133
e 14 134
e 14 136
e 14 137
e 14 138
e 15 21
e 15 22
e 15 23
e 15 24
e 15 27
e 15 30
e 15 32
e 15 33
e 15 36
e 15 39
e 15 40
e 15 41
e 15 45
e 15 46
e 15 47
e 15 49
e 15 51
e 15 55
e 15 56
e 15 57
e 15 59
e 15 60
e 15 62
e 15 64
e 15 65
e 15 68
e 15 70
e 15 73
e 15 76
e 15 77
e 15 80
e 15 81
e 15 82
e 15 83
e 15 84
e 15 87
e 15 90
e 15 92
e 15 93
e 15 98
e 15 100
e 15 104
e 15 107
e 15 110
e 15 111
e 15 114
e 15 115
e 15 116
e 15 118
e 15 120
e 15 121
e 15 122
e 15 125
e 15 126
e 15 128
e 15 130
e 15 131
e 15 134
e 15 136
e 15 138
e 16 24
e 16 25
e 16 28
e 16 29
e 16 30
e 16 31
e 16 35
e 16 38
e 16 39
e 16 40
e 16 41
e 16 42
e 16 44
e 16 51
e 16 52
e 16 53
e 16 56
e 16 57
e 16 59
e 16 63
e 16 64
e 16 65
e 16 66
e 16 67
e 16 68
e 16 71
e 16 76
e 16 78
e 16 79
e 16 80
e 16 81
e 16 82
e 16 83
e 16 85
e 16 86
e 16 92
e 16 94
e 16 99
e 16 100
e 16 101
e 16 102
e 16 104
e 16 106
e 16 107
e 16 112
e 16 113
e 16 117
e 16 118
e 16 120
e 16 123
e 16 124
e 16 126
e 16 127
e 16 129
e 16 130
e 16 133
e 16 134
e 16 135
e 16 136
e 16 138
e 16 139
e 16 140
e 17 22
e 17 24
e 17 25
e 17 32
e 17 34
e 17 35
e 17 37
e 17 38
e 17 42
e 17 43
e 17 44
e 17 46
e 17 50
e 17 55
e 17 57
e 17 59
e 17 62
e 17 64
e 17 65
e 17 66
e 17 70
e 17 72
e 17 75
e 17 78
e 17 79
e 17 80
e 17 84
e 17 87
e 17 89
e 17 91
e 17 92
e 17 93
e 17 96
e 17 99
e 17 100
e 17 102
e 17 104
e 17 107
e 17 110
e 17 112
e 17 113
e 17 115
e 17 117
e 17 118
e 17 119
e 17 120
e 17 123
e 17 126
e 17 128
e 17 130
e 17 131
e 17 132
e 17 133
e 17 135
e 17 136
e 17 139
e 17 140
e 18 21
e 18 22
e 18 23
e 18 25
e 18 27
e 18 28
e 18 29
e 18 30
e 18 31
e 18 34
e 18 36
e 18 37
e 18 39
e 18 41
e 18 42
e 18 43
e 18 44
e 18 47
e 18 48
e 18 49
e 18 50
e 18 52
e 18 54
e 18 60
e 18 63
e 18 64
e 18 65
e 18 68
e 18 70
e 18 72
e 18 73
e 18 74
e 18 80
e 18 83
e 18 85
e 18 87
e 18 91
e 18 93
e 18 94
e 18 95
e 18 96
e 18 97
e 18 99
e 18 100
e 18 101
e 18 102
e 18 104
e 18 105
e 18 106
e 18 107
e 18 111
e 18 112
e 18 117
e 18 125
e 18 127
e 18 128
e 18 130
e 18 131
e 18 139
e 18 140
e 19 21
e 19 24
e 19 26
e 19 29
e 19 30
e 19 38
e 19 39
e 19 40
e 19 41
e 19 42
e 19 43
e 19 44
e 19 45
e 19 46
e 19 50
e 19 51
e 19 52
e 19 53
e 19 54
e 19 56
e 19 57
e 19 59
e 19 60
e 19 61
e 19 63
e 19 66
e 19 74
e 19 76
e 19 77
e 19 78
e 19 79
e 19 80
e 19 81
e 19 82
e 19 83
e 19 85
e 19 87
e 19 88
e 19 89
e 19 90
e 19 92
e 19 94
e 19 96
e 19 97
e 19 101
e 19 104
e 19 105
e 19 106
e 19 108
e 19 110
e 19 111
e 19 114
e 19 116
e 19 117
e 19 118
e 19 119
e 19 120
e 19 121
e 19 123
e 19 125
e 19 126
e 19 127
e 19 128
e 19 129
e 19 130
e 19 132
e 19 133
e 19 134
e 19 135
e 19 138
e 19 140
e 20 21
e 20 22
e 20 25
e 20 26
e 20 29
e 20 31
e 20 37
e 20 38
e 20 39
e 20 40
e 20 43
e 20 44
e 20 45
e 20 46
e 20 48
e 20 55
e 20 56
e 20 57
e 20 59
e 20 60
e 20 62
e 20 64
e 20 67
e 20 71
e 20 73
e 20 74
e 20 75
e 20 78
e 20 80
e 20 83
e 20 86
e 20 87
e 20 88
e 20 89
e 20 90
e 20 94
e 20 96
e 20 97
e 20 100
e 20 101
e 20 102
e 20 103
e 20 104
e 20 105
e 20 113
e 20 114
e 20 115
e 20 116
e 20 118
e 20 120
e 20 124
e 20 126
e 20 129
e 20 130
e 20 131
e 20 133
e 20 135
e 20 136
e 20 137
e 20 138
e 21 41
e 21 42
e 21 43
e 21 47
e 21 48
e 21 51
e 21 55
e 21 59
e 21 60
e 21 65
e 21 66
e 21 69
e 21 71
e 21 74
e 21 78
e 21 79
e 21 82
e 21 83
e 21 86
e 21 87
e 21 88
e 21 89
e 21 90
e 21 91
e 21 93
e 21 94
e 21 97
e 21 102
e 21 103
e 21 104
e 21 106
e 21 107
e 21 108
e 21 110
e 21 113
e 21 114
e 21 115
e 21 118
e 21 119
e 21 121
e 21 128
e 21 129
e 21 130
e 21 133
e 21 134
e 21 137
e 21 138
e 21 139
e 22 43
e 22 44
e 22 46
e 22 47
e 22 50
e 22 51
e 22 52
e 22 53
e 22 54
e 22 56
e 22 57
e 22 59
e 22 61
e 22 62
e 22 64
e 22 65
e 22 71
e 22 72
e 22 74
e 22 75
e 22 76
e 22 77
e 22 81
e 22 82
e 22 88
e 22 89
e 22 90
e 22 91
e 22 92
e 22 94
e 22 95
e 22 97
e 22 98
e 22 100
e 22 104
e 22 105
e 22 110
e 22 113
e 22 114
e 22 116
e 22 117
e 22 118
e 22 120
e 22 122
e 22 130
e 22 131
e 22 134
e 22 136
e 22 138
e 22 139
e 23 42
e 23 43
e 23 45
e 23 47
e 23 53
e 23 56
e 23 58
e 23 63
e 23 64
e 23 65
e 23 66
e 23 67
e 23 70
e 23 72
e 23 73
e 23 74
e 23 75
e 23 77
e 23 79
e 23 80
e 23 82
e 23 83
e 23 84
e 23 86
e 23 88
e 23 89
e 23 91
e 23 92
e 23 94
e 23 95
e 23 97
e 23 98
e 23 99
e 23 104
e 23 111
e 23 112
e 23 113
e 23 117
e 23 118
e 23 123
e 23 125
e 23 126
e 23 127
e 23 129
e 23 132
e 23 133
e 23 138
e 24 42
e 24 47
e 24 49
e 24 51
e 24 52
e 24 53
e 24 55
e 24 57
e 24 58
e 24 60
e 24 61
e 24 62
e 24 63
e 24 65
e 24 66
e 24 71
e 24 72
e 24 74
e 24 75
e 24 77
e 24 79
e 24 81
e 24 82
e 24 83
e 24 85
e 24 88
e 24 91
e 24 92
e 24 95
e 24 96
e 24 97
e 24 98
e 24 99
e 24 100
e 24 101
e 24 103
e 24 104
e 24 105
e 24 110
e 24 111
e 24 113
e 24 114
e 24 116
e 24 118
e 24 121
e 24 122
e 24 123
e 24 125
e 24 126
e 24 129
e 24 131
e 24 132
e 24 133
e 24 134
e 24 139
e 25 46
e 25 48
e 25 53
e 25 54
e 25 55
e 25 56
e 25 58
e 25 65
e 25 66
e 25 68
e 25 70
e 25 72
e 25 74
e 25 76
e 25 77
e 25 79
e 25 80
e 25 81
e 25 83
e 25 84
e 25 85
e 25 86
e 25 88
e 25 90
e 25 91
e 25 92
e 25 97
e 25 99
e 25 100
e 25 101
e 25 105
e 25 108
e 25 110
e 25 112
e 25 115
e 25 117
e 25 118
e 25 120
e 25 121
e 25 122
e 25 123
e 25 124
e 25 126
e 25 128
e 25 129
e 25 130
e 25 131
e 25 133
e 25 135
e 25 136
e 25 138
e 25 140
e 26 41
e 26 43
e 26 45
e 26 48
e 26 53
e 26 54
e 26 56
e 26 57
e 26 59
e 26 61
e 26 66
e 26 68
e 26 69
e 26 71
e 26 72
e 26 73
e 26 74
e 26 75
e 26 77
e 26 79
e 26 80
e 26 81
e 26 85
e 26 87
e 26 88
e 26 89
e 26 90
e 26 93
e 26 94
e 26 95
e 26 97
e 26 98
e 26 99
e 26 100
e 26 104
e 26 105
e 26 106
e 26 108
e 26 110
e 26 111
e 26 112
e 26 114
e 26 115
e 26 116
e 26 121
e 26 123
e 26 127
e 26 129
e 26 130
e 26 134
e 26 135
e 26 137
e 26 139
e 26 140
e 27 41
e 27 42
e 27 43
e 27 44
e 27 45
e 27 46
e 27 47
e 27 49
e 27 51
e 27 52
e 27 56
e 27 60
e 27 62
e 27 65
e 27 71
e 27 73
e 27 74
e 27 75
e 27 78
e 27 81
e 27 84
e 27 85
e 27 87
e 27 89
e 27 91
e 27 93
e 27 95
e 27 97
e 27 98
e 27 101
e 27 102
e 27 104
e 27 106
e 27 111
e 27 112
e 27 113
e 27 116
e 27 117
e 27 118
e 27 121
e 27 122
e 27 123
e 27 125
e 27 126
e 27 127
e 27 128
e 27 131
e 27 132
e 27 134
e 27 136
e 27 140
e 28 42
e 28 43
e 28 44
e 28 47
e 28 48
e 28 50
e 28 51
e 28 53
e 28 55
e 28 58
e 28 60
e 28 61
e 28 62
e 28 66
e 28 70
e 28 72
e 28 74
e 28 76
e 28 77
e 28 80
e 28 83
e 28 84
e 28 85
e 28 87
e 28 88
e 28 89
e 28 90
e 28 92
e 28 93
e 28 94
e 28 97
e 28 102
e 28 104
e 28 105
e 28 112
e 28 114
e 28 115
e 28 118
e 28 119
e 28 120
e 28 124
e 28 127
e 28 132
e 28 134
e 28 135
e 29 41
e 29 44
e 29 45
e 29 46
e 29 47
e 29 48
e 29 49
e 29 51
e 29 53
e 29 54
e 29 55
e 29 58
e 29 62
e 29 69
e 29 72
e 29 73
e 29 74
e 29 77
e 29 78
e 29 79
e 29 81
e 29 82
e 29 84
e 29 86
e 29 87
e 29 89
e 29 90
e 29 93
e 29 95
e 29 97
e 29 99
e 29 102
e 29 103
e 29 104
e 29 106
e 29 107
e 29 110
e 29 112
e 29 115
e 29 117
e 29 118
e 29 121
e 29 122
e 29 129
e 29 132
e 29 134
e 29 136
e 29 137
e 29 138
e 29 139
e 29 140
e 30 41
e 30 43
e 30 44
e 30 45
e 30 47
e 30 52
e 30 55
e 30 56
e 30 59
e 30 61
e 30 64
e 30 66
e 30 67
e 30 69
e 30 75
e 30 77
e 30 79
e 30 80
e 30 82
e 30 83
e 30 84
e 30 85
e 30 89
e 30 93
e 30 94
e 30 95
e 30 96
e 30 97
e 30 99
e 30 101
e 30 103
e 30 106
e 30 108
e 30 109
e 30 110
e 30 112
e 30 113
e 30 114
e 30 117
e 30 118
e 30 121
e 30 124
e 30 126
e 30 128
e 30 134
e 30 136
e 30 137
e 30 138
e 30 139
e 30 140
e 31 41
e 31 43
e 31 44
e 31 45
e 31 46
e 31 50
e 31 51
e 31 55
e 31 59
e 31 60
e 31 61
e 31 62
e 31 63
e 31 64
e 31 68
e 31 72
e 31 75
e 31 76
e 31 78
e 31 79
e 31 80
e 31 83
e 31 84
e 31 85
e 31 86
e 31 89
e 31 91
e 31 92
e 31 93
e 31 94
e 31 95
e 31 96
e 31 98
e 31 99
e 31 101
e 31 102
e 31 104
e 31 105
e 31 106
e 31 107
e 31 109
e 31 114
e 31 116
e 31 120
e 31 124
e 31 129
e 31 130
e 31 131
e 31 132
e 31 134
e 31 138
e 32 41
e 32 44
e 32 45
e 32 46
e 32 48
e 32 51
e 32 53
e 32 57
e 32 58
e 32 59
e 32 60
e 32 61
e 32 65
e 32 66
e 32 72
e 32 73
e 32 74
e 32 77
e 32 80
e 32 81
e 32 83
e 32 84
e 32 87
e 32 88
e 32 92
e 32 93
e 32 94
e 32 95
e 32 96
e 32 97
e 32 98
e 32 102
e 32 103
e 32 105
e 32 106
e 32 108
e 32 109
e 32 110
e 32 111
e 32 114
e 32 115
e 32 116
e 32 117
e 32 118
e 32 119
e 32 120
e 32 123
e 32 124
e 32 125
e 32 126
e 32 130
e 32 133
e 32 134
e 32 136
e 32 137
e 32 138
e 32 140
e 33 45
e 33 46
e 33 48
e 33 50
e 33 52
e 33 54
e 33 55
e 33 56
e 33 60
e 33 61
e 33 62
e 33 64
e 33 67
e 33 68
e 33 71
e 33 74
e 33 75
e 33 76
e 33 77
e 33 78
e 33 79
e 33 81
e 33 82
e 33 85
e 33 86
e 33 87
e 33 91
e 33 95
e 33 96
e 33 99
e 33 100
e 33 101
e 33 102
e 33 103
e 33 106
e 33 108
e 33 109
e 33 113
e 33 114
e 33 118
e 33 119
e 33 122
e 33 123
e 33 124
e 33 133
e 33 134
e 33 135
e 33 136
e 33 137
e 33 138
e 33 139
e 33 140
e 34 41
e 34 42
e 34 45
e 34 46
e 34 47
e 34 49
e 34 50
e 34 51
e 34 54
e 34 57
e 34 59
e 34 60
e 34 62
e 34 64
e 34 65
e 34 69
e 34 70
e 34 71
e 34 75
e 34 79
e 34 80
e 34 82
e 34 83
e 34 85
e 34 86
e 34 87
e 34 88
e 34 89
e 34 90
e 34 92
e 34 93
e 34 94
e 34 96
e 34 98
e 34 99
e 34 101
e 34 102
e 34 104
e 34 105
e 34 107
e 34 109
e 34 110
e 34 112
e 34 114
e 34 117
e 34 118
e 34 119
e 34 120
e 34 121
e 34 122
e 34 123
e 34 124
e 34 127
e 34 128
e 34 131
e 34 132
e 34 134
e 34 137
e 34 138
e 34 139
e 34 140
e 35 43
e 35 44
e 35 46
e 35 49
e 35 53
e 35 54
e 35 57
e 35 58
e 35 61
e 35 64
e 35 66
e 35 68
e 35 69
e 35 71
e 35 73
e 35 75
e 35 76
e 35 78
e 35 80
e 35 84
e 35 85
e 35 87
e 35 89
e 35 90
e 35 93
e 35 95
e 35 97
e 35 99
e 35 100
e 35 101
e 35 107
e 35 108
e 35 110
e 35 111
e 35 112
e 35 115
e 35 116
e 35 119
e 35 120
e 35 121
e 35 124
e 35 126
e 35 127
e 35 128
e 35 130
e 35 132
e 35 133
e 35 134
e 35 138
e 36 41
e 36 42
e 36 49
e 36 50
e 36 51
e 36 53
e 36 55
e 36 57
e 36 65
e 36 66
e 36 68
e 36 69
e 36 70
e 36 75
e 36 76
e 36 78
e 36 79
e 36 80
e 36 81
e 36 82
e 36 84
e 36 85
e 36 87
e 36 88
e 36 91
e 36 92
e 36 94
e 36 96
e 36 97
e 36 98
e 36 99
e 36 102
e 36 103
e 36 104
e 36 105
e 36 106
e 36 107
e 36 108
e 36 110
e 36 111
e 36 113
e 36 115
e 36 118
e 36 120
e 36 121
e 36 122
e 36 125
e 36 129
e 36 130
e 36 132
e 36 133
e 36 134
e 36 138
e 36 139
e 36 140
e 37 41
e 37 42
e 37 44
e 37 45
e 37 49
e 37 52
e 37 54
e 37 55
e 37 56
e 37 57
e 37 58
e 37 59
e 37 60
e 37 62
e 37 63
e 37 67
e 37 69
e 37 71
e 37 72
e 37 75
e 37 78
e 37 79
e 37 80
e 37 81
e 37 82
e 37 86
e 37 88
e 37 89
e 37 90
e 37 92
e 37 96
e 37 97
e 37 99
e 37 100
e 37 102
e 37 103
e 37 104
e 37 108
e 37 109
e 37 110
e 37 111
e 37 112
e 37 116
e 37 119
e 37 121
e 37 128
e 37 131
e 37 132
e 37 133
e 37 136
e 37 139
e 38 46
e 38 50
e 38 52
e 38 53
e 38 54
e 38 55
e 38 56
e 38 57
e 38 59
e 38 60
e 38 61
e 38 64
e 38 65
e 38 68
e 38 69
e 38 75
e 38 79
e 38 80
e 38 83
e 38 84
e 38 86
e 38 87
e 38 88
e 38 89
e 38 90
e 38 93
e 38 97
e 38 104
e 38 105
e 38 106
e 38 107
e 38 108
e 38 109
e 38 111
e 38 112
e 38 115
e 38 120
e 38 122
e 38 123
e 38 125
e 38 127
e 38 128
e 38 129
e 38 130
e 38 137
e 39 41
e 39 42
e 39 43
e 39 45
e 39 47
e 39 48
e 39 49
e 39 50
e 39 51
e 39 54
e 39 55
e 39 56
e 39 57
e 39 58
e 39 60
e 39 61
e 39 62
e 39 63
e 39 64
e 39 67
e 39 69
e 39 72
e 39 73
e 39 74
e 39 76
e 39 78
e 39 80
e 39 82
e 39 83
e 39 84
e 39 85
e 39 86
e 39 89
e 39 94
e 39 96
e 39 97
e 39 99
e 39 100
e 39 101
e 39 104
e 39 111
e 39 112
e 39 113
e 39 118
e 39 120
e 39 123
e 39 125
e 39 126
e 39 128
e 39 130
e 39 131
e 39 132
e 39 135
e 39 136
e 39 139
e 40 41
e 40 42
e 40 43
e 40 44
e 40 45
e 40 47
e 40 50
e 40 51
e 40 56
e 40 57
e 40 58
e 40 60
e 40 61
e 40 63
e 40 64
e 40 67
e 40 69
e 40 70
e 40 71
e 40 73
e 40 76
e 40 77
e 40 78
e 40 79
e 40 80
e 40 83
e 40 89
e 40 90
e 40 93
e 40 95
e 40 97
e 40 99
e 40 101
e 40 102
e 40 103
e 40 104
e 40 107
e 40 108
e 40 110
e 40 111
e 40 114
e 40 115
e 40 116
e 40 117
e 40 118
e 40 124
e 40 125
e 40 128
e 40 134
e 40 140
e 41 61
e 41 62
e 41 66
e 41 67
e 41 69
e 41 72
e 41 73
e 41 74
e 41 76
e 41 77
e 41 79
e 41 80
e 41 82
e 41 84
e 41 90
e 41 93
e 41 94
e 41 98
e 41 101
e 41 103
e 41 106
e 41 107
e 41 108
e 41 109
e 41 112
e 41 113
e 41 119
e 41 120
e 41 126
e 41 127
e 41 130
e 41 131
e 41 133
e 41 136
e 41 137
e 41 140
e 42 61
e 42 62
e 42 67
e 42 69
e 42 71
e 42 76
e 42 77
e 42 80
e 42 81
e 42 83
e 42 86
e 42 89
e 42 90
e 42 91
e 42 92
e 42 99
e 42 100
e 42 102
e 42 104
e 42 105
e 42 107
e 42 110
e 42 111
e 42 112
e 42 114
e 42 115
e 42 116
e 42 117
e 42 120
e 42 121
e 42 123
e 42 125
e 42 127
e 42 130
e 42 131
e 42 133
e 42 134
e 42 135
e 42 138
e 42 139
e 43 61
e 43 62
e 43 66
e 43 68
e 43 72
e 43 73
e 43 79
e 43 80
e 43 83
e 43 85
e 43 86
e 43 87
e 43 91
e 43 92
e 43 93
e 43 95
e 43 96
e 43 97
e 43 98
e 43 99
e 43 100
e 43 102
e 43 104
e 43 105
e 43 108
e 43 109
e 43 110
e 43 111
e 43 116
e 43 117
e 43 119
e 43 120
e 43 121
e 43 122
e 43 123
e 43 125
e 43 126
e 43 127
e 43 133
e 43 134
e 43 138
e 43 140
e 44 63
e 44 68
e 44 71
e 44 74
e 44 81
e 44 82
e 44 83
e 44 84
e 44 86
e 44 87
e 44 91
e 44 92
e 44 93
e 44 94
e 44 95
e 44 98
e 44 102
e 44 104
e 44 105
e 44 106
e 44 108
e 44 110
e 44 112
e 44 113
e 44 115
e 44 119
e 44 120
e 44 125
e 44 127
e 44 128
e 44 130
e 44 131
e 44 132
e 44 133
e 44 134
e 44 137
e 44 139
e 44 140
e 45 61
e 45 67
e 45 68
e 45 70
e 45 72
e 45 73
e 45 77
e 45 81
e 45 83
e 45 85
e 45 86
e 45 88
e 45 89
e 45 90
e 45 92
e 45 94
e 45 95
e 45 96
e 45 98
e 45 105
e 45 107
e 45 109
e 45 110
e 45 111
e 45 114
e 45 117
e 45 119
e 45 120
e 45 124
e 45 125
e 45 126
e 45 129
e 45 131
e 45 132
e 45 134
e 45 135
e 46 61
e 46 62
e 46 63
e 46 64
e 46 65
e 46 67
e 46 68
e 46 69
e 46 70
e 46 71
e 46 73
e 46 74
e 46 76
e 46 78
e 46 79
e 46 80
e 46 81
e 46 82
e 46 85
e 46 87
e 46 90
e 46 91
e 46 93
e 46 94
e 46 95
e 46 96
e 46 101
e 46 102
e 46 103
e 46 105
e 46 107
e 46 110
e 46 111
e 46 112
e 46 113
e 46 114
e 46 115
e 46 120
e 46 122
e 46 124
e 46 125
e 46 126
e 46 128
e 46 129
e 46 131
e 46 132
e 46 133
e 46 138
e 46 139
e 47 62
e 47 64
e 47 69
e 47 70
e 47 71
e 47 73
e 47 74
e 47 75
e 47 76
e 47 77
e 47 83
e 47 85
e 47 88
e 47 90
e 47 97
e 47 102
e 47 103
e 47 105
e 47 106
e 47 108
e 47 109
e 47 112
e 47 115
e 47 116
e 47 117
e 47 119
e 47 120
e 47 121
e 47 122
e 47 126
e 47 129
e 47 131
e 47 132
e 47 135
e 47 137
e 47 138
e 48 68
e 48 70
e 48 73
e 48 77
e 48 79
e 48 80
e 48 81
e 48 84
e 48 85
e 48 88
e 48 89
e 48 91
e 48 93
e 48 94
e 48 96
e 48 97
e 48 98
e 48 99
e 48 100
e 48 102
e 48 103
e 48 104
e 48 105
e 48 106
e 48 107
e 48 108
e 48 110
e 48 112
e 48 114
e 48 116
e 48 117
e 48 120
e 48 122
e 48 123
e 48 127
e 48 128
e 48 131
e 48 132
e 48 133
e 48 134
e 48 137
e 48 140
e 49 62
e 49 63
e 49 64
e 49 68
e 49 69
e 49 70
e 49 71
e 49 73
e 49 74
e 49 75
e 49 76
e 49 78
e 49 83
e 49 84
e 49 85
e 49 89
e 49 90
e 49 92
e 49 93
e 49 95
e 49 96
e 49 98
e 49 103
e 49 106
e 49 108
e 49 109
e 49 111
e 49 113
e 49 116
e 49 119
e 49 120
e 49 121
e 49 122
e 49 123
e 49 125
e 49 126
e 49 130
e 49 132
e 49 134
e 49 136
e 49 138
e 49 139
e 49 140
e 50 61
e 50 62
e 50 63
e 50 64
e 50 71
e 50 73
e 50 74
e 50 79
e 50 81
e 50 82
e 50 83
e 50 84
e 50 85
e 50 86
e 50 88
e 50 91
e 50 93
e 50 97
e 50 99
e 50 100
e 50 101
e 50 103
e 50 106
e 50 109
e 50 113
e 50 114
e 50 120
e 50 123
e 50 127
e 50 133
e 50 134
e 50 135
e 50 137
e 50 139
e 50 140
e 51 63
e 51 64
e 51 65
e 51 72
e 51 73
e 51 74
e 51 76
e 51 77
e 51 79
e 51 82
e 51 83
e 51 84
e 51 85
e 51 86
e 51 88
e 51 91
e 51 95
e 51 97
e 51 99
e 51 101
e 51 102
e 51 104
e 51 107
e 51 114
e 51 115
e 51 116
e 51 117
e 51 118
e 51 122
e 51 124
e 51 129
e 51 132
e 51 133
e 51 140
e 52 61
e 52 62
e 52 64
e 52 67
e 52 68
e 52 73
e 52 76
e 52 78
e 52 79
e 52 83
e 52 85
e 52 88
e 52 91
e 52 93
e 52 94
e 52 97
e 52 99
e 52 103
e 52 107
e 52 108
e 52 109
e 52 111
e 52 112
e 52 116
e 52 117
e 52 118
e 52 119
e 52 125
e 52 127
e 52 128
e 52 133
e 52 136
e 52 138
e 52 140
e 53 67
e 53 68
e 53 70
e 53 71
e 53 72
e 53 73
e 53 74
e 53 75
e 53 78
e 53 79
e 53 82
e 53 84
e 53 88
e 53 89
e 53 90
e 53 92
e 53 94
e 53 95
e 53 96
e 53 97
e 53 98
e 53 102
e 53 104
e 53 106
e 53 107
e 53 108
e 53 114
e 53 115
e 53 116
e 53 119
e 53 120
e 53 121
e 53 124
e 53 126
e 53 129
e 53 130
e 53 131
e 53 132
e 53 133
e 53 135
e 53 139
e 53 140
e 54 63
e 54 64
e 54 68
e 54 69
e 54 71
e 54 74
e 54 75
e 54 77
e 54 78
e 54 79
e 54 80
e 54 84
e 54 86
e 54 87
e 54 88
e 54 91
e 54 93
e 54 94
e 54 97
e 54 99
e 54 103
e 54 106
e 54 107
e 54 108
e 54 110
e 54 113
e 54 114
e 54 116
e 54 117
e 54 118
e 54 119
e 54 120
e 54 121
e 54 126
e 54 128
e 54 129
e 54 134
e 54 135
e 55 62
e 55 65
e 55 67
e 55 69
e 55 71
e 55 73
e 55 74
e 55 75
e 55 76
e 55 80
e 55 83
e 55 85
e 55 86
e 55 88
e 55 90
e 55 91
e 55 94
e 55 95
e 55 97
e 55 100
e 55 101
e 55 103
e 55 104
e 55 105
e 55 107
e 55 108
e 55 109
e 55 110
e 55 114
e 55 117
e 55 118
e 55 123
e 55 126
e 55 127
e 55 129
e 55 130
e 55 132
e 55 133
e 55 134
e 55 135
e 55 137
e 55 138
e 56 61
e 56 62
e 56 63
e 56 64
e 56 65
e 56 66
e 56 72
e 56 73
e 56 76
e 56 77
e 56 79
e 56 80
e 56 81
e 56 82
e 56 84
e 56 88
e 56 89
e 56 91
e 56 92
e 56 93
e 56 94
e 56 95
e 56 97
e 56 102
e 56 103
e 56 105
e 56 110
e 56 112
e 56 114
e 56 115
e 56 116
e 56 118
e 56 119
e 56 120
e 56 122
e 56 124
e 56 125
e 56 127
e 56 128
e 56 130
e 56 131
e 57 66
e 57 67
e 57 69
e 57 70
e 57 72
e 57 76
e 57 80
e 57 81
e 57 82
e 57 90
e 57 91
e 57 96
e 57 99
e 57 100
e 57 101
e 57 102
e 57 103
e 57 105
e 57 106
e 57 108
e 57 109
e 57 110
e 57 114
e 57 117
e 57 118
e 57 119
e 57 120
e 57 128
e 57 129
e 57 130
e 57 132
e 57 135
e 57 136
e 57 137
e 57 140
e 58 62
e 58 63
e 58 68
e 58 69
e 58 72
e 58 73
e 58 74
e 58 77
e 58 78
e 58 80
e 58 84
e 58 85
e 58 87
e 58 90
e 58 91
e 58 93
e 58 96
e 58 98
e 58 99
e 58 101
e 58 104
e 58 107
e 58 109
e 58 113
e 58 114
e 58 118
e 58 119
e 58 123
e 58 124
e 58 125
e 58 130
e 58 131
e 58 133
e 58 135
e 58 137
e 58 138
e 58 139
e 59 61
e 59 63
e 59 64
e 59 65
e 59 66
e 59 67
e 59 71
e 59 73
e 59 78
e 59 80
e 59 81
e 59 84
e 59 85
e 59 86
e 59 89
e 59 90
e 59 91
e 59 94
e 59 96
e 59 97
e 59 98
e 59 99
e 59 100
e 59 101
e 59 105
e 59 109
e 59 110
e 59 111
e 59 112
e 59 114
e 59 115
e 59 116
e 59 118
e 59 120
e 59 123
e 59 125
e 59 126
e 59 127
e 59 128
e 59 131
e 59 134
e 59 136
e 59 137
e 59 138
e 59 140
e 60 61
e 60 69
e 60 73
e 60 74
e 60 75
e 60 76
e 60 77
e 60 79
e 60 80
e 60 81
e 60 82
e 60 87
e 60 88
e 60 89
e 60 90
e 60 92
e 60 96
e 60 99
e 60 100
e 60 101
e 60 102
e 60 104
e 60 105
e 60 108
e 60 115
e 60 118
e 60 121
e 60 122
e 60 123
e 60 126
e 60 127
e 60 128
e 60 130
e 60 131
e 60 135
e 60 136
e 60 138
e 61 81
e 61 87
e 61 92
e 61 94
e 61 97
e 61 98
e 61 99
e 61 101
e 61 102
e 61 103
e 61 104
e 61 105
e 61 106
e 61 111
e 61 114
e 61 115
e 61 119
e 61 121
e 61 124
e 61 125
e 61 126
e 61 128
e 61 130
e 61 131
e 61 133
e 61 135
e 61 136
e 61 138
e 61 139
e 62 82
e 62 83
e 62 89
e 62 93
e 62 94
e 62 96
e 62 97
e 62 99
e 62 103
e 62 107
e 62 110
e 62 111
e 62 115
e 62 116
e 62 120
e 62 124
e 62 126
e 62 128
e 62 129
e 62 131
e 62 137
e 62 138
e 62 139
e 63 81
e 63 82
e 63 83
e 63 84
e 63 85
e 63 86
e 63 88
e 63 90
e 63 92
e 63 93
e 63 94
e 63 95
e 63 97
e 63 99
e 63 101
e 63 104
e 63 105
e 63 106
e 63 110
e 63 112
e 63 113
e 63 114
e 63 119
e 63 120
e 63 122
e 63 124
e 63 126
e 63 129
e 63 130
e 63 132
e 63 134
e 63 137
e 63 138
e 63 140
e 64 83
e 64 84
e 64 88
e 64 89
e 64 90
e 64 92
e 64 94
e 64 96
e 64 97
e 64 98
e 64 101
e 64 102
e 64 103
e 64 105
e 64 106
e 64 108
e 64 116
e 64 118
e 64 119
e 64 121
e 64 123
e 64 124
e 64 127
e 64 129
e 64 130
e 64 131
e 64 133
e 64 135
e 64 136
e 64 137
e 64 138
e 64 140
e 65 87
e 65 88
e 65 89
e 65 90
e 65 92
e 65 99
e 65 100
e 65 101
e 65 102
e 65 104
e 65 108
e 65 111
e 65 112
e 65 113
e 65 114
e 65 115
e 65 116
e 65 117
e 65 119
e 65 120
e 65 124
e 65 125
e 65 130
e 65 131
e 65 134
e 65 135
e 65 136
e 65 139
e 66 81
e 66 82
e 66 86
e 66 87
e 66 88
e 66 93
e 66 94
e 66 95
e 66 97
e 66 98
e 66 102
e 66 103
e 66 104
e 66 106
e 66 109
e 66 111
e 66 113
e 66 114
e 66 118
e 66 120
e 66 124
e 66 127
e 66 128
e 66 129
e 66 131
e 66 132
e 66 133
e 66 135
e 66 136
e 66 138
e 67 81
e 67 83
e 67 86
e 67 87
e 67 89
e 67 90
e 67 91
e 67 92
e 67 96
e 67 98
e 67 99
e 67 107
e 67 110
e 67 111
e 67 113
e 67 114
e 67 116
e 67 117
e 67 118
e 67 119
e 67 122
e 67 126
e 67 127
e 67 128
e 67 130
e 67 131
e 67 132
e 67 133
e 67 134
e 67 135
e 67 137
e 67 138
e 68 82
e 68 83
e 68 85
e 68 86
e 68 91
e 68 93
e 68 94
e 68 100
e 68 103
e 68 106
e 68 107
e 68 109
e 68 113
e 68 114
e 68 115
e 68 116
e 68 118
e 68 121
e 68 125
e 68 128
e 68 129
e 68 132
e 68 134
e 68 135
e 68 136
e 68 137
e 68 138
e 68 139
e 68 140
e 69 82
e 69 85
e 69 86
e 69 87
e 69 88
e 69 89
e 69 92
e 69 93
e 69 96
e 69 98
e 69 99
e 69 101
e 69 106
e 69 107
e 69 110
e 69 120
e 69 121
e 69 122
e 69 123
e 69 124
e 69 131
e 69 132
e 69 136
e 69 138
e 69 139
e 70 81
e 70 84
e 70 85
e 70 88
e 70 89
e 70 94
e 70 100
e 70 101
e 70 102
e 70 104
e 70 105
e 70 106
e 70 109
e 70 111
e 70 112
e 70 114
e 70 115
e 70 116
e 70 117
e 70 118
e 70 120
e 70 121
e 70 123
e 70 127
e 70 134
e 70 135
e 70 137
e 70 138
e 70 139
e 71 82
e 71 83
e 71 84
e 71 88
e 71 89
e 71 91
e 71 92
e 71 93
e 71 94
e 71 96
e 71 103
e 71 104
e 71 105
e 71 106
e 71 109
e 71 112
e 71 113
e 71 115
e 71 117
e 71 121
e 71 122
e 71 123
e 71 124
e 71 125
e 71 130
e 71 132
e 71 133
e 71 134
e 71 137
e 71 139
e 72 81
e 72 82
e 72 84
e 72 86
e 72 87
e 72 88
e 72 90
e 72 92
e 72 94
e 72 96
e 72 99
e 72 100
e 72 101
e 72 102
e 72 103
e 72 104
e 72 107
e 72 108
e 72 109
e 72 110
e 72 111
e 72 112
e 72 115
e 72 120
e 72 126
e 72 127
e 72 129
e 72 132
e 72 133
e 72 134
e 72 135
e 72 140
e 73 83
e 73 84
e 73 85
e 73 86
e 73 89
e 73 92
e 73 93
e 73 94
e 73 95
e 73 100
e 73 104
e 73 106
e 73 108
e 73 109
e 73 112
e 73 117
e 73 119
e 73 120
e 73 124
e 73 125
e 73 126
e 73 128
e 73 129
e 73 130
e 73 132
e 73 133
e 73 138
e 73 140
e 74 81
e 74 83
e 74 84
e 74 87
e 74 89
e 74 90
e 74 91
e 74 92
e 74 93
e 74 94
e 74 97
e 74 99
e 74 101
e 74 102
e 74 103
e 74 104
e 74 105
e 74 111
e 74 114
e 74 116
e 74 117
e 74 119
e 74 122
e 74 123
e 74 124
e 74 127
e 74 128
e 74 129
e 74 130
e 74 132
e 74 136
e 74 137
e 74 139
e 75 82
e 75 83
e 75 88
e 75 92
e 75 96
e 75 97
e 75 98
e 75 99
e 75 101
e 75 102
e 75 103
e 75 104
e 75 106
e 75 107
e 75 108
e 75 109
e 75 110
e 75 111
e 75 112
e 75 113
e 75 114
e 75 119
e 75 120
e 75 121
e 75 122
e 75 124
e 75 125
e 75 132
e 75 133
e 75 134
e 75 138
e 75 139
e 75 140
e 76 82
e 76 83
e 76 88
e 76 89
e 76 93
e 76 94
e 76 95
e 76 96
e 76 98
e 76 100
e 76 108
e 76 109
e 76 110
e 76 111
e 76 119
e 76 123
e 76 124
e 76 126
e 76 128
e 76 129
e 76 132
e 76 133
e 76 134
e 76 135
e 76 137
e 77 81
e 77 82
e 77 84
e 77 85
e 77 93
e 77 97
e 77 98
e 77 99
e 77 104
e 77 105
e 77 109
e 77 112
e 77 113
e 77 114
e 77 115
e 77 116
e 77 123
e 77 124
e 77 125
e 77 127
e 77 128
e 77 129
e 77 130
e 77 131
e 77 132
e 77 134
e 77 135
e 77 137
e 78 82
e 78 85
e 78 86
e 78 87
e 78 90
e 78 95
e 78 99
e 78 100
e 78 101
e 78 102
e 78 103
e 78 105
e 78 108
e 78 118
e 78 119
e 78 123
e 78 127
e 78 128
e 78 129
e 78 131
e 78 132
e 78 136
e 78 137
e 78 138
e 78 139
e 79 82
e 79 85
e 79 87
e 79 89
e 79 91
e 79 94
e 79 97
e 79 98
e 79 99
e 79 100
e 79 103
e 79 106
e 79 107
e 79 108
e 79 110
e 79 111
e 79 114
e 79 115
e 79 116
e 79 118
e 79 119
e 79 120
e 79 122
e 79 125
e 79 128
e 79 129
e 79 131
e 79 132
e 79 133
e 79 135
e 79 136
e 79 137
e 79 138
e 79 140
e 80 90
e 80 91
e 80 96
e 80 99
e 80 101
e 80 106
e 80 107
e 80 108
e 80 110
e 80 111
e 80 117
e 80 119
e 80 120
e 80 124
e 80 125
e 80 127
e 80 129
e 80 131
e 80 133
e 80 134
e 80 140
e 81 101
e 81 104
e 81 106
e 81 108
e 81 109
e 81 110
e 81 111
e 81 114
e 81 115
e 81 117
e 81 119
e 81 120
e 81 122
e 81 123
e 81 126
e 81 127
e 81 128
e 81 129
e 81 131
e 81 132
e 81 135
e 81 136
e 81 138
e 81 140
e 82 101
e 82 103
e 82 106
e 82 107
e 82 109
e 82 111
e 82 112
e 82 113
e 82 117
e 82 118
e 82 121
e 82 124
e 82 125
e 82 129
e 82 130
e 82 131
e 82 133
e 82 135
e 82 137
e 82 138
e 82 139
e 82 140
e 83 105
e 83 106
e 83 108
e 83 109
e 83 111
e 83 114
e 83 118
e 83 119
e 83 120
e 83 121
e 83 122
e 83 123
e 83 124
e 83 127
e 83 133
e 83 134
e 83 135
e 83 138
e 83 139
e 83 140
e 84 102
e 84 103
e 84 104
e 84 105
e 84 106
e 84 111
e 84 112
e 84 113
e 84 114
e 84 115
e 84 119
e 84 120
e 84 121
e 84 122
e 84 123
e 84 126
e 84 129
e 84 130
e 84 131
e 84 132
e 84 133
e 84 134
e 84 135
e 84 136
e 84 137
e 84 139
e 84 140
e 85 103
e 85 106
e 85 107
e 85 109
e 85 110
e 85 111
e 85 112
e 85 116
e 85 118
e 85 119
e 85 126
e 85 127
e 85 128
e 85 129
e 85 132
e 85 137
e 86 102
e 86 105
e 86 109
e 86 110
e 86 112
e 86 113
e 86 115
e 86 116
e 86 117
e 86 120
e 86 123
e 86 125
e 86 127
e 86 131
e 86 132
e 86 137
e 87 103
e 87 109
e 87 111
e 87 113
e 87 117
e 87 119
e 87 121
e 87 124
e 87 125
e 87 127
e 87 129
e 87 131
e 87 133
e 87 135
e 87 139
e 88 101
e 88 103
e 88 107
e 88 108
e 88 110
e 88 114
e 88 115
e 88 116
e 88 118
e 88 122
e 88 123
e 88 125
e 88 126
e 88 127
e 88 131
e 88 132
e 88 133
e 88 134
e 88 135
e 88 138
e 89 102
e 89 104
e 89 106
e 89 107
e 89 109
e 89 111
e 89 116
e 89 118
e 89 120
e 89 121
e 89 127
e 89 131
e 89 132
e 89 133
e 89 135
e 89 137
e 89 139
e 90 101
e 90 102
e 90 104
e 90 105
e 90 106
e 90 107
e 90 109
e 90 110
e 90 114
e 90 117
e 90 119
e 90 120
e 90 122
e 90 123
e 90 124
e 90 127
e 90 129
e 90 131
e 90 132
e 90 133
e 90 134
e 90 137
e 90 138
e 90 139
e 91 103
e 91 106
e 91 109
e 91 110
e 91 111
e 91 113
e 91 115
e 91 116
e 91 119
e 91 120
e 91 121
e 91 122
e 91 123
e 91 125
e 91 126
e 91 127
e 91 128
e 91 131
e 91 133
e 91 134
e 91 135
e 91 136
e 91 137
e 91 140
e 92 105
e 92 106
e 92 109
e 92 110
e 92 111
e 92 113
e 92 115
e 92 116
e 92 117
e 92 122
e 92 123
e 92 124
e 92 127
e 92 129
e 92 131
e 92 134
e 92 135
e 92 139
e 93 101
e 93 106
e 93 109
e 93 112
e 93 115
e 93 118
e 93 121
e 93 122
e 93 126
e 93 127
e 93 128
e 93 132
e 93 135
e 93 136
e 93 138
e 93 139
e 93 140
e 94 104
e 94 105
e 94 107
e 94 108
e 94 110
e 94 111
e 94 115
e 94 116
e 94 120
e 94 122
e 94 123
e 94 126
e 94 128
e 94 130
e 94 131
e 94 132
e 94 134
e 94 137
e 94 138
e 94 139
e 95 104
e 95 106
e 95 107
e 95 109
e 95 110
e 95 111
e 95 112
e 95 114
e 95 116
e 95 120
e 95 121
e 95 122
e 95 123
e 95 127
e 95 128
e 95 130
e 95 131
e 95 133
e 95 135
e 95 136
e 95 139
e 95 140
e 96 102
e 96 103
e 96 106
e 96 107
e 96 109
e 96 110
e 96 112
e 96 115
e 96 116
e 96 117
e 96 119
e 96 120
e 96 124
e 96 127
e 96 130
e 96 131
e 96 132
e 96 133
e 96 134
e 96 135
e 96 139
e 97 101
e 97 104
e 97 105
e 97 106
e 97 111
e 97 112
e 97 114
e 97 115
e 97 118
e 97 119
e 97 120
e 97 124
e 97 127
e 97 131
e 97 132
e 97 137
e 97 138
e 97 139
e 98 103
e 98 104
e 98 107
e 98 108
e 98 112
e 98 113
e 98 114
e 98 116
e 98 117
e 98 119
e 98 122
e 98 123
e 98 124
e 98 126
e 98 128
e 98 129
e 98 132
e 98 133
e 98 135
e 98 136
e 99 102
e 99 104
e 99 106
e 99 108
e 99 109
e 99 110
e 99 112
e 99 117
e 99 118
e 99 119
e 99 122
e 99 123
e 99 126
e 99 128
e 99 133
e 99 136
e 99 138
e 99 139
e 100 103
e 100 110
e 100 113
e 100 117
e 100 119
e 100 121
e 100 122
e 100 123
e 100 126
e 100 128
e 100 130
e 100 134
e 100 136
e 100 139
e 100 140
e 101 121
e 101 125
e 101 126
e 101 127
e 101 132
e 101 133
e 101 135
e 101 136
e 101 140
e 102 124
e 102 125
e 102 128
e 102 131
e 102 136
e 103 122
e 103 123
e 103 124
e 103 125
e 103 127
e 103 129
e 103 130
e 103 132
e 103 136
e 103 138
e 103 140
e 104 124
e 104 126
e 104 135
e 104 136
e 104 139
e 105 121
e 105 122
e 105 123
e 105 125
e 105 126
e 105 127
e 105 132
e 105 133
e 105 135
e 105 137
e 105 138
e 106 121
e 106 123
e 106 125
e 106 126
e 106 127
e 106 129
e 106 130
e 106 134
e 106 138
e 106 139
e 106 140
e 107 122
e 107 124
e 107 126
e 107 127
e 107 130
e 107 131
e 107 134
e 107 138
e 107 139
e 108 122
e 108 124
e 108 125
e 108 128
e 108 130
e 108 132
e 108 134
e 108 135
e 108 136
e 109 121
e 109 122
e 109 126
e 109 127
e 109 130
e 109 136
e 109 137
e 109 138
e 109 139
e 110 124
e 110 126
e 110 127
e 110 129
e 110 130
e 110 131
e 110 132
e 110 134
e 110 136
e 110 137
e 110 138
e 110 140
e 111 122
e 111 123
e 111 124
e 111 125
e 111 129
e 111 132
e 111 139
e 112 121
e 112 122
e 112 123
e 112 129
e 112 133
e 112 135
e 113 121
e 113 122
e 113 123
e 113 124
e 113 125
e 113 127
e 113 128
e 113 129
e 113 130
e 113 131
e 113 132
e 113 133
e 113 134
e 113 140
e 114 121
e 114 123
e 114 124
e 114 126
e 114 127
e 114 128
e 114 130
e 114 132
e 114 134
e 114 135
e 114 139
e 114 140
e 115 123
e 115 124
e 115 125
e 115 126
e 115 127
e 115 128
e 115 129
e 115 130
e 115 133
e 115 134
e 115 136
e 115 137
e 115 140
e 116 122
e 116 123
e 116 125
e 116 127
e 116 128
e 116 130
e 116 132
e 116 133
e 116 135
e 116 139
e 117 122
e 117 124
e 117 126
e 117 127
e 117 128
e 117 131
e 117 132
e 117 134
e 117 135
e 117 137
e 117 138
e 118 123
e 118 126
e 118 127
e 118 129
e 118 131
e 118 133
e 118 134
e 118 138
e 118 139
e 118 140
e 119 123
e 119 124
e 119 125
e 119 127
e 119 129
e 119 132
e 119 133
e 119 137
e 119 138
e 119 140
e 120 121
e 120 122
e 120 123
e 120 125
e 120 126
e 120 127
e 120 129
e 120 132
e 120 134
e 120 136
e 120 138
e 120 140
