c FILE: balanced_graphs/balanced_100_5_50_4.col
c
c DESCRIPTION: Random balanced graph, 100 nodes,
c              partitions 5
c              edge probability 0.5
c
c G(100,5,0.5) graph
c number of vertices : 100
c max number of edges: 4950
c edge probability   : 0.5
c
c           Graph Stats
c number of vertices  : 100
c nonisolated vertices: 100
c number of edges     : 2014
c edge density        : 0.4069
c max degree          : 51
c avg degree          : 40.28
c min degree          : 29
c
p col 100 2014
e 1 23
e 1 27
e 1 28
e 1 30
e 1 32
e 1 33
e 1 35
e 1 38
e 1 39
e 1 43
e 1 51
e 1 54
e 1 66
e 1 67
e 1 69
e 1 73
e 1 74
e 1 77
e 1 78
e 1 79
e 1 80
e 1 81
e 1 85
e 1 86
e 1 88
e 1 89
e 1 90
e 1 92
e 1 93
e 1 96
e 1 97
e 1 98
e 1 99
e 2 22
e 2 23
e 2 24
e 2 26
e 2 28
e 2 30
e 2 31
e 2 32
e 2 34
e 2 35
e 2 36
e 2 39
e 2 41
e 2 42
e 2 43
e 2 44
e 2 45
e 2 46
e 2 48
e 2 49
e 2 50
e 2 51
e 2 52
e 2 53
e 2 55
e 2 60
e 2 61
e 2 68
e 2 71
e 2 75
e 2 79
e 2 80
e 2 81
e 2 83
e 2 84
e 2 86
e 2 90
e 2 92
e 2 96
e 2 97
e 2 100
e 3 21
e 3 22
e 3 24
e 3 25
e 3 27
e 3 28
e 3 33
e 3 35
e 3 37
e 3 40
e 3 49
e 3 51
e 3 52
e 3 54
e 3 56
e 3 57
e 3 58
e 3 59
e 3 61
e 3 62
e 3 63
e 3 65
e 3 66
e 3 69
e 3 71
e 3 73
e 3 74
e 3 75
e 3 79
e 3 82
e 3 83
e 3 84
e 3 87
e 3 90
e 3 93
e 3 95
e 3 98
e 3 99
e 3 100
e 4 21
e 4 23
e 4 24
e 4 25
e 4 26
e 4 27
e 4 28
e 4 29
e 4 31
e 4 32
e 4 33
e 4 34
e 4 36
e 4 41
e 4 42
e 4 43
e 4 50
e 4 54
e 4 55
e 4 62
e 4 65
e 4 67
e 4 68
e 4 70
e 4 72
e 4 73
e 4 75
e 4 76
e 4 78
e 4 79
e 4 80
e 4 81
e 4 84
e 4 86
e 4 89
e 4 90
e 4 91
e 4 93
e 4 94
e 4 98
e 4 99
e 4 100
e 5 21
e 5 22
e 5 23
e 5 25
e 5 27
e 5 29
e 5 31
e 5 32
e 5 33
e 5 34
e 5 35
e 5 36
e 5 37
e 5 38
e 5 40
e 5 42
e 5 43
e 5 44
e 5 46
e 5 48
e 5 50
e 5 51
e 5 52
e 5 54
e 5 57
e 5 62
e 5 63
e 5 64
e 5 65
e 5 67
e 5 71
e 5 72
e 5 73
e 5 74
e 5 78
e 5 81
e 5 82
e 5 83
e 5 85
e 5 86
e 5 87
e 5 89
e 5 90
e 5 93
e 5 94
e 5 96
e 5 99
e 6 21
e 6 23
e 6 28
e 6 29
e 6 31
e 6 34
e 6 35
e 6 36
e 6 37
e 6 39
e 6 40
e 6 46
e 6 50
e 6 51
e 6 53
e 6 54
e 6 59
e 6 60
e 6 62
e 6 65
e 6 68
e 6 73
e 6 75
e 6 76
e 6 77
e 6 79
e 6 81
e 6 86
e 6 87
e 6 89
e 6 90
e 6 92
e 6 93
e 6 96
e 6 97
e 6 100
e 7 22
e 7 25
e 7 27
e 7 29
e 7 30
e 7 32
e 7 33
e 7 37
e 7 40
e 7 45
e 7 51
e 7 53
e 7 56
e 7 57
e 7 58
e 7 60
e 7 61
e 7 62
e 7 65
e 7 67
e 7 72
e 7 74
e 7 76
e 7 78
e 7 79
e 7 83
e 7 86
e 7 89
e 7 91
e 7 94
e 7 95
e 7 96
e 7 97
e 7 98
e 8 21
e 8 24
e 8 25
e 8 28
e 8 29
e 8 30
e 8 31
e 8 32
e 8 33
e 8 36
e 8 37
e 8 39
e 8 42
e 8 44
e 8 45
e 8 47
e 8 53
e 8 54
e 8 57
e 8 60
e 8 61
e 8 69
e 8 71
e 8 76
e 8 77
e 8 79
e 8 80
e 8 81
e 8 83
e 8 84
e 8 87
e 8 89
e 8 90
e 8 93
e 8 96
e 8 97
e 8 100
e 9 21
e 9 22
e 9 23
e 9 27
e 9 30
e 9 31
e 9 32
e 9 33
e 9 35
e 9 37
e 9 39
e 9 42
e 9 43
e 9 45
e 9 47
e 9 49
e 9 51
e 9 54
e 9 55
e 9 58
e 9 59
e 9 60
e 9 63
e 9 64
e 9 67
e 9 69
e 9 72
e 9 73
e 9 75
e 9 78
e 9 80
e 9 81
e 9 83
e 9 84
e 9 85
e 9 86
e 9 87
e 9 89
e 9 90
e 9 91
e 9 93
e 9 94
e 9 96
e 10 23
e 10 25
e 10 26
e 10 29
e 10 30
e 10 32
e 10 34
e 10 35
e 10 37
e 10 39
e 10 40
e 10 41
e 10 42
e 10 44
e 10 46
e 10 50
e 10 52
e 10 54
e 10 56
e 10 58
e 10 60
e 10 61
e 10 64
e 10 65
e 10 66
e 10 67
e 10 72
e 10 75
e 10 76
e 10 77
e 10 78
e 10 80
e 10 84
e 10 85
e 10 86
e 10 87
e 10 89
e 10 90
e 10 93
e 10 94
e 10 95
e 10 96
e 10 98
e 10 99
e 10 100
e 11 21
e 11 27
e 11 29
e 11 30
e 11 32
e 11 33
e 11 36
e 11 37
e 11 38
e 11 40
e 11 41
e 11 44
e 11 45
e 11 47
e 11 52
e 11 53
e 11 58
e 11 60
e 11 61
e 11 62
e 11 64
e 11 66
e 11 68
e 11 69
e 11 70
e 11 74
e 11 75
e 11 77
e 11 78
e 11 80
e 11 81
e 11 83
e 11 84
e 11 86
e 11 87
e 11 89
e 11 92
e 11 94
e 11 96
e 11 98
e 11 100
e 12 22
e 12 24
e 12 25
e 12 28
e 12 29
e 12 30
e 12 32
e 12 33
e 12 36
e 12 40
e 12 42
e 12 43
e 12 44
e 12 47
e 12 52
e 12 53
e 12 54
e 12 58
e 12 59
e 12 60
e 12 61
e 12 68
e 12 70
e 12 71
e 12 74
e 12 75
e 12 77
e 12 78
e 12 80
e 12 82
e 12 83
e 12 89
e 12 90
e 12 95
e 12 96
e 12 98
e 12 99
e 13 21
e 13 26
e 13 28
e 13 31
e 13 32
e 13 38
e 13 39
e 13 40
e 13 41
e 13 44
e 13 47
e 13 48
e 13 50
e 13 52
e 13 53
e 13 55
e 13 57
e 13 58
e 13 59
e 13 61
e 13 62
e 13 64
e 13 65
e 13 66
e 13 70
e 13 71
e 13 72
e 13 73
e 13 74
e 13 75
e 13 76
e 13 77
e 13 80
e 13 81
e 13 83
e 13 84
e 13 85
e 13 88
e 13 89
e 13 91
e 13 93
e 13 97
e 13 98
e 13 99
e 13 100
e 14 22
e 14 24
e 14 28
e 14 29
e 14 31
e 14 32
e 14 33
e 14 34
e 14 35
e 14 36
e 14 37
e 14 38
e 14 43
e 14 45
e 14 46
e 14 48
e 14 51
e 14 52
e 14 53
e 14 55
e 14 57
e 14 58
e 14 59
e 14 62
e 14 63
e 14 69
e 14 70
e 14 71
e 14 75
e 14 77
e 14 79
e 14 81
e 14 82
e 14 83
e 14 85
e 14 86
e 14 88
e 14 91
e 14 92
e 14 96
e 14 99
e 15 22
e 15 23
e 15 24
e 15 25
e 15 27
e 15 28
e 15 32
e 15 35
e 15 39
e 15 41
e 15 42
e 15 43
e 15 44
e 15 45
e 15 48
e 15 49
e 15 50
e 15 51
e 15 52
e 15 53
e 15 57
e 15 58
e 15 61
e 15 62
e 15 63
e 15 65
e 15 66
e 15 67
e 15 68
e 15 69
e 15 70
e 15 72
e 15 73
e 15 74
e 15 76
e 15 78
e 15 79
e 15 80
e 15 81
e 15 82
e 15 83
e 15 84
e 15 85
e 15 86
e 15 88
e 15 89
e 15 90
e 15 92
e 15 93
e 15 94
e 15 98
e 16 21
e 16 23
e 16 27
e 16 31
e 16 32
e 16 33
e 16 34
e 16 36
e 16 38
e 16 42
e 16 43
e 16 44
e 16 48
e 16 49
e 16 52
e 16 53
e 16 54
e 16 56
e 16 57
e 16 61
e 16 62
e 16 64
e 16 65
e 16 68
e 16 69
e 16 71
e 16 74
e 16 78
e 16 85
e 16 86
e 16 87
e 16 90
e 16 92
e 16 95
e 16 97
e 16 99
e 17 21
e 17 23
e 17 25
e 17 27
e 17 29
e 17 30
e 17 31
e 17 33
e 17 34
e 17 35
e 17 37
e 17 39
e 17 43
e 17 46
e 17 47
e 17 48
e 17 50
e 17 54
e 17 59
e 17 60
e 17 61
e 17 64
e 17 65
e 17 67
e 17 68
e 17 69
e 17 70
e 17 72
e 17 73
e 17 74
e 17 77
e 17 78
e 17 82
e 17 85
e 17 88
e 17 89
e 17 91
e 17 94
e 17 96
e 17 97
e 18 21
e 18 23
e 18 24
e 18 26
e 18 27
e 18 31
e 18 32
e 18 39
e 18 41
e 18 42
e 18 44
e 18 45
e 18 46
e 18 47
e 18 48
e 18 50
e 18 51
e 18 52
e 18 54
e 18 57
e 18 58
e 18 60
e 18 61
e 18 64
e 18 65
e 18 67
e 18 69
e 18 72
e 18 73
e 18 78
e 18 79
e 18 81
e 18 83
e 18 84
e 18 85
e 18 89
e 18 90
e 18 92
e 18 93
e 18 97
e 18 99
e 19 21
e 19 22
e 19 23
e 19 24
e 19 27
e 19 28
e 19 29
e 19 32
e 19 35
e 19 36
e 19 39
e 19 40
e 19 43
e 19 46
e 19 47
e 19 49
e 19 50
e 19 53
e 19 54
e 19 55
e 19 57
e 19 62
e 19 63
e 19 64
e 19 66
e 19 69
e 19 70
e 19 74
e 19 77
e 19 79
e 19 81
e 19 83
e 19 84
e 19 85
e 19 87
e 19 88
e 19 89
e 19 90
e 19 92
e 19 95
e 19 96
e 19 97
e 19 98
e 19 100
e 20 23
e 20 25
e 20 26
e 20 29
e 20 36
e 20 39
e 20 41
e 20 44
e 20 45
e 20 46
e 20 48
e 20 50
e 20 52
e 20 56
e 20 57
e 20 58
e 20 61
e 20 63
e 20 64
e 20 65
e 20 66
e 20 67
e 20 69
e 20 70
e 20 71
e 20 73
e 20 75
e 20 80
e 20 81
e 20 83
e 20 84
e 20 89
e 20 94
e 20 95
e 20 96
e 20 99
e 21 41
e 21 42
e 21 46
e 21 47
e 21 51
e 21 54
e 21 55
e 21 56
e 21 59
e 21 60
e 21 65
e 21 67
e 21 68
e 21 77
e 21 81
e 21 83
e 21 86
e 21 87
e 21 92
e 21 94
e 21 95
e 21 96
e 21 98
e 21 99
e 21 100
e 22 41
e 22 44
e 22 45
e 22 46
e 22 48
e 22 50
e 22 51
e 22 56
e 22 57
e 22 62
e 22 65
e 22 66
e 22 69
e 22 70
e 22 71
e 22 72
e 22 73
e 22 74
e 22 75
e 22 76
e 22 78
e 22 81
e 22 82
e 22 85
e 22 86
e 22 87
e 22 88
e 22 90
e 22 93
e 22 95
e 22 96
e 22 97
e 22 98
e 23 42
e 23 44
e 23 45
e 23 46
e 23 47
e 23 53
e 23 55
e 23 58
e 23 60
e 23 62
e 23 64
e 23 67
e 23 68
e 23 69
e 23 70
e 23 71
e 23 74
e 23 76
e 23 78
e 23 81
e 23 83
e 23 86
e 23 87
e 23 88
e 23 89
e 23 94
e 23 98
e 23 100
e 24 44
e 24 47
e 24 48
e 24 49
e 24 50
e 24 52
e 24 53
e 24 55
e 24 56
e 24 59
e 24 62
e 24 63
e 24 64
e 24 69
e 24 70
e 24 71
e 24 76
e 24 79
e 24 81
e 24 82
e 24 83
e 24 85
e 24 86
e 24 87
e 24 88
e 24 90
e 24 92
e 24 97
e 24 99
e 24 100
e 25 41
e 25 42
e 25 44
e 25 45
e 25 51
e 25 53
e 25 55
e 25 56
e 25 58
e 25 59
e 25 61
e 25 62
e 25 68
e 25 69
e 25 71
e 25 72
e 25 75
e 25 76
e 25 77
e 25 80
e 25 83
e 25 84
e 25 85
e 25 87
e 25 91
e 25 94
e 25 97
e 25 99
e 26 42
e 26 45
e 26 48
e 26 49
e 26 51
e 26 54
e 26 55
e 26 61
e 26 64
e 26 65
e 26 69
e 26 70
e 26 78
e 26 79
e 26 81
e 26 82
e 26 83
e 26 87
e 26 89
e 26 92
e 26 96
e 26 98
e 26 100
e 27 43
e 27 44
e 27 45
e 27 47
e 27 48
e 27 51
e 27 53
e 27 54
e 27 57
e 27 60
e 27 61
e 27 64
e 27 65
e 27 66
e 27 68
e 27 71
e 27 73
e 27 75
e 27 76
e 27 79
e 27 80
e 27 81
e 27 83
e 27 84
e 27 85
e 27 87
e 27 88
e 27 89
e 27 90
e 27 93
e 27 95
e 27 96
e 27 97
e 27 98
e 27 99
e 27 100
e 28 41
e 28 50
e 28 55
e 28 57
e 28 59
e 28 60
e 28 62
e 28 63
e 28 66
e 28 67
e 28 68
e 28 69
e 28 71
e 28 72
e 28 73
e 28 75
e 28 78
e 28 79
e 28 80
e 28 81
e 28 83
e 28 85
e 28 91
e 28 97
e 29 43
e 29 45
e 29 47
e 29 48
e 29 50
e 29 51
e 29 52
e 29 53
e 29 54
e 29 55
e 29 57
e 29 60
e 29 63
e 29 65
e 29 71
e 29 72
e 29 75
e 29 82
e 29 83
e 29 86
e 29 87
e 29 88
e 29 92
e 29 93
e 29 94
e 29 95
e 29 96
e 29 97
e 29 100
e 30 41
e 30 42
e 30 45
e 30 46
e 30 48
e 30 49
e 30 51
e 30 52
e 30 55
e 30 59
e 30 60
e 30 61
e 30 63
e 30 67
e 30 69
e 30 70
e 30 72
e 30 73
e 30 75
e 30 76
e 30 77
e 30 78
e 30 79
e 30 81
e 30 82
e 30 85
e 30 90
e 30 91
e 30 92
e 30 93
e 30 94
e 30 95
e 30 98
e 30 99
e 30 100
e 31 42
e 31 45
e 31 46
e 31 48
e 31 51
e 31 56
e 31 57
e 31 59
e 31 60
e 31 64
e 31 65
e 31 66
e 31 67
e 31 68
e 31 69
e 31 70
e 31 72
e 31 77
e 31 78
e 31 80
e 31 86
e 31 91
e 31 94
e 32 41
e 32 42
e 32 46
e 32 47
e 32 48
e 32 50
e 32 52
e 32 54
e 32 55
e 32 56
e 32 57
e 32 58
e 32 59
e 32 61
e 32 65
e 32 66
e 32 67
e 32 70
e 32 73
e 32 75
e 32 80
e 32 82
e 32 83
e 32 87
e 32 88
e 32 89
e 32 90
e 32 91
e 32 94
e 32 95
e 32 96
e 32 97
e 32 99
e 32 100
e 33 42
e 33 44
e 33 45
e 33 48
e 33 49
e 33 50
e 33 51
e 33 52
e 33 53
e 33 58
e 33 61
e 33 62
e 33 63
e 33 67
e 33 69
e 33 70
e 33 71
e 33 72
e 33 74
e 33 75
e 33 76
e 33 78
e 33 81
e 33 82
e 33 85
e 33 86
e 33 89
e 33 92
e 33 93
e 33 94
e 33 96
e 33 99
e 34 41
e 34 43
e 34 44
e 34 45
e 34 48
e 34 49
e 34 50
e 34 52
e 34 53
e 34 54
e 34 55
e 34 56
e 34 58
e 34 61
e 34 62
e 34 66
e 34 67
e 34 68
e 34 69
e 34 70
e 34 71
e 34 72
e 34 75
e 34 76
e 34 77
e 34 80
e 34 81
e 34 85
e 34 86
e 34 88
e 34 90
e 34 93
e 34 94
e 34 95
e 34 100
e 35 41
e 35 42
e 35 43
e 35 47
e 35 48
e 35 50
e 35 52
e 35 54
e 35 55
e 35 58
e 35 59
e 35 61
e 35 62
e 35 63
e 35 67
e 35 68
e 35 69
e 35 70
e 35 71
e 35 73
e 35 74
e 35 77
e 35 80
e 35 82
e 35 84
e 35 85
e 35 88
e 35 90
e 35 91
e 35 92
e 35 93
e 35 95
e 35 96
e 35 99
e 36 43
e 36 45
e 36 47
e 36 48
e 36 49
e 36 50
e 36 52
e 36 54
e 36 56
e 36 58
e 36 59
e 36 60
e 36 62
e 36 68
e 36 69
e 36 70
e 36 74
e 36 75
e 36 76
e 36 78
e 36 83
e 36 84
e 36 86
e 36 90
e 36 93
e 36 94
e 36 96
e 36 98
e 36 100
e 37 44
e 37 45
e 37 46
e 37 49
e 37 51
e 37 52
e 37 54
e 37 55
e 37 57
e 37 58
e 37 61
e 37 66
e 37 67
e 37 68
e 37 69
e 37 71
e 37 73
e 37 76
e 37 77
e 37 81
e 37 82
e 37 85
e 37 87
e 37 90
e 37 92
e 37 93
e 37 95
e 37 96
e 37 98
e 38 41
e 38 43
e 38 51
e 38 52
e 38 53
e 38 57
e 38 59
e 38 60
e 38 62
e 38 63
e 38 64
e 38 65
e 38 69
e 38 73
e 38 74
e 38 78
e 38 84
e 38 85
e 38 88
e 38 89
e 38 91
e 38 93
e 38 94
e 38 95
e 38 96
e 38 98
e 38 99
e 38 100
e 39 41
e 39 43
e 39 44
e 39 49
e 39 55
e 39 57
e 39 58
e 39 59
e 39 60
e 39 61
e 39 62
e 39 64
e 39 67
e 39 69
e 39 74
e 39 80
e 39 82
e 39 83
e 39 84
e 39 85
e 39 86
e 39 89
e 39 90
e 39 91
e 39 93
e 39 95
e 39 96
e 39 97
e 39 98
e 39 99
e 39 100
e 40 42
e 40 44
e 40 45
e 40 46
e 40 47
e 40 48
e 40 50
e 40 51
e 40 54
e 40 59
e 40 62
e 40 63
e 40 67
e 40 75
e 40 77
e 40 78
e 40 81
e 40 83
e 40 85
e 40 86
e 40 87
e 40 88
e 40 94
e 40 97
e 40 100
e 41 62
e 41 64
e 41 65
e 41 66
e 41 67
e 41 68
e 41 69
e 41 71
e 41 72
e 41 73
e 41 75
e 41 78
e 41 80
e 41 81
e 41 82
e 41 84
e 41 85
e 41 86
e 41 87
e 41 88
e 41 90
e 41 93
e 41 94
e 41 95
e 41 97
e 41 98
e 41 100
e 42 62
e 42 64
e 42 67
e 42 68
e 42 69
e 42 71
e 42 72
e 42 75
e 42 76
e 42 77
e 42 78
e 42 79
e 42 80
e 42 81
e 42 82
e 42 83
e 42 84
e 42 85
e 42 87
e 42 88
e 42 89
e 42 92
e 42 93
e 42 94
e 42 96
e 42 98
e 42 100
e 43 62
e 43 65
e 43 66
e 43 67
e 43 73
e 43 75
e 43 77
e 43 78
e 43 80
e 43 81
e 43 84
e 43 86
e 43 87
e 43 88
e 43 89
e 43 90
e 43 94
e 43 99
e 44 63
e 44 65
e 44 69
e 44 71
e 44 73
e 44 74
e 44 77
e 44 78
e 44 79
e 44 83
e 44 86
e 44 87
e 44 88
e 44 89
e 44 91
e 44 93
e 44 95
e 44 96
e 44 99
e 44 100
e 45 66
e 45 72
e 45 73
e 45 75
e 45 80
e 45 83
e 45 84
e 45 85
e 45 86
e 45 88
e 45 89
e 45 91
e 45 92
e 45 93
e 45 94
e 45 95
e 45 97
e 45 98
e 46 61
e 46 62
e 46 65
e 46 66
e 46 68
e 46 71
e 46 74
e 46 76
e 46 77
e 46 78
e 46 79
e 46 82
e 46 83
e 46 84
e 46 86
e 46 89
e 46 91
e 46 94
e 46 95
e 46 96
e 46 97
e 46 98
e 46 99
e 47 61
e 47 63
e 47 64
e 47 65
e 47 66
e 47 67
e 47 68
e 47 69
e 47 72
e 47 74
e 47 75
e 47 76
e 47 77
e 47 78
e 47 80
e 47 81
e 47 83
e 47 85
e 47 86
e 47 87
e 47 88
e 47 90
e 47 92
e 47 93
e 47 95
e 47 97
e 47 98
e 47 100
e 48 61
e 48 63
e 48 65
e 48 66
e 48 69
e 48 72
e 48 75
e 48 77
e 48 78
e 48 80
e 48 81
e 48 83
e 48 84
e 48 85
e 48 87
e 48 88
e 48 89
e 48 91
e 48 95
e 48 97
e 48 98
e 48 99
e 48 100
e 49 61
e 49 66
e 49 67
e 49 69
e 49 73
e 49 74
e 49 76
e 49 78
e 49 81
e 49 82
e 49 83
e 49 84
e 49 85
e 49 87
e 49 88
e 49 90
e 49 91
e 49 92
e 49 93
e 49 95
e 49 96
e 49 99
e 49 100
e 50 61
e 50 64
e 50 66
e 50 68
e 50 70
e 50 72
e 50 73
e 50 78
e 50 81
e 50 83
e 50 85
e 50 87
e 50 89
e 50 93
e 50 95
e 50 96
e 51 62
e 51 67
e 51 70
e 51 71
e 51 75
e 51 76
e 51 79
e 51 80
e 51 82
e 51 83
e 51 86
e 51 91
e 51 95
e 51 96
e 51 97
e 51 100
e 52 66
e 52 74
e 52 75
e 52 76
e 52 77
e 52 78
e 52 86
e 52 88
e 52 89
e 52 90
e 52 93
e 52 95
e 52 99
e 53 64
e 53 67
e 53 68
e 53 71
e 53 73
e 53 74
e 53 75
e 53 76
e 53 78
e 53 81
e 53 82
e 53 85
e 53 86
e 53 88
e 53 89
e 53 90
e 53 92
e 53 97
e 53 98
e 53 100
e 54 63
e 54 64
e 54 68
e 54 74
e 54 76
e 54 77
e 54 78
e 54 83
e 54 85
e 54 88
e 54 95
e 54 96
e 54 97
e 54 98
e 55 64
e 55 65
e 55 68
e 55 69
e 55 70
e 55 71
e 55 73
e 55 77
e 55 78
e 55 81
e 55 82
e 55 83
e 55 84
e 55 85
e 55 86
e 55 87
e 55 88
e 55 89
e 55 92
e 55 93
e 55 95
e 55 99
e 55 100
e 56 61
e 56 63
e 56 71
e 56 73
e 56 74
e 56 76
e 56 78
e 56 79
e 56 86
e 56 87
e 56 88
e 56 89
e 56 92
e 56 94
e 56 96
e 56 98
e 56 99
e 56 100
e 57 61
e 57 62
e 57 63
e 57 70
e 57 71
e 57 72
e 57 73
e 57 74
e 57 75
e 57 77
e 57 78
e 57 79
e 57 83
e 57 86
e 57 87
e 57 91
e 57 93
e 57 94
e 57 98
e 57 99
e 58 61
e 58 67
e 58 69
e 58 71
e 58 75
e 58 76
e 58 78
e 58 79
e 58 81
e 58 85
e 58 87
e 58 90
e 58 94
e 58 97
e 58 98
e 58 99
e 59 61
e 59 64
e 59 67
e 59 68
e 59 69
e 59 70
e 59 72
e 59 74
e 59 76
e 59 79
e 59 80
e 59 81
e 59 83
e 59 85
e 59 90
e 59 91
e 59 92
e 59 94
e 59 97
e 59 98
e 59 99
e 59 100
e 60 66
e 60 67
e 60 68
e 60 71
e 60 76
e 60 77
e 60 80
e 60 81
e 60 83
e 60 84
e 60 85
e 60 88
e 60 89
e 60 90
e 60 91
e 60 93
e 60 97
e 60 98
e 60 99
e 61 83
e 61 84
e 61 87
e 61 88
e 61 89
e 61 90
e 61 91
e 61 95
e 61 97
e 61 98
e 61 99
e 62 81
e 62 83
e 62 84
e 62 85
e 62 86
e 62 87
e 62 88
e 62 93
e 62 95
e 62 97
e 62 98
e 62 99
e 63 83
e 63 85
e 63 87
e 63 90
e 63 92
e 63 96
e 63 97
e 63 99
e 64 81
e 64 82
e 64 83
e 64 84
e 64 87
e 64 91
e 64 92
e 64 96
e 64 97
e 64 99
e 64 100
e 65 81
e 65 82
e 65 83
e 65 85
e 65 88
e 65 89
e 65 92
e 65 93
e 65 96
e 65 98
e 65 99
e 66 81
e 66 82
e 66 84
e 66 88
e 66 89
e 66 95
e 66 96
e 66 97
e 66 98
e 66 100
e 67 82
e 67 84
e 67 86
e 67 91
e 67 92
e 67 96
e 67 100
e 68 81
e 68 84
e 68 85
e 68 86
e 68 87
e 68 92
e 68 96
e 68 97
e 68 98
e 69 81
e 69 83
e 69 84
e 69 86
e 69 88
e 69 89
e 69 90
e 69 93
e 69 94
e 69 97
e 69 98
e 69 100
e 70 82
e 70 85
e 70 87
e 70 88
e 70 90
e 70 91
e 70 93
e 70 98
e 70 99
e 71 81
e 71 82
e 71 84
e 71 85
e 71 87
e 71 89
e 71 94
e 71 96
e 71 99
e 71 100
e 72 82
e 72 84
e 72 85
e 72 89
e 72 90
e 72 91
e 72 94
e 72 95
e 72 96
e 72 99
e 73 82
e 73 87
e 73 88
e 73 89
e 73 90
e 73 92
e 73 97
e 73 98
e 73 100
e 74 82
e 74 83
e 74 84
e 74 87
e 74 91
e 74 93
e 74 95
e 74 97
e 74 99
e 74 100
e 75 81
e 75 82
e 75 84
e 75 86
e 75 87
e 75 89
e 75 91
e 75 92
e 75 93
e 75 94
e 75 96
e 75 97
e 75 99
e 76 82
e 76 84
e 76 86
e 76 87
e 76 90
e 76 91
e 76 92
e 76 93
e 76 98
e 76 99
e 77 84
e 77 86
e 77 87
e 77 90
e 77 91
e 77 92
e 77 93
e 77 94
e 77 95
e 77 96
e 77 98
e 77 99
e 77 100
e 78 81
e 78 82
e 78 83
e 78 85
e 78 89
e 78 91
e 78 92
e 78 93
e 78 96
e 78 99
e 78 100
e 79 81
e 79 84
e 79 85
e 79 86
e 79 87
e 79 88
e 79 90
e 79 91
e 79 94
e 79 95
e 79 96
e 80 81
e 80 82
e 80 83
e 80 85
e 80 86
e 80 87
e 80 88
e 80 89
e 80 92
e 80 93
e 80 95
e 80 96
e 80 97
