c FILE: balanced_graphs/balanced_60_3_25_1.col
c
c DESCRIPTION: Random balanced graph, 60 nodes,
c              partitions 3
c              edge probability 0.25
c
c G(60,3,0.25) graph
c number of vertices : 60
c max number of edges: 1770
c edge probability   : 0.25
c
c           Graph Stats
c number of vertices  : 60
c nonisolated vertices: 60
c number of edges     : 286
c edge density        : 0.1616
c max degree          : 16
c avg degree          : 9.53
c min degree          : 4
c
p col 60 286
e 1 24
e 1 26
e 1 28
e 1 29
e 1 31
e 1 34
e 1 47
e 1 51
e 1 55
e 1 57
e 2 25
e 2 31
e 2 35
e 2 36
e 2 40
e 2 48
e 2 49
e 2 53
e 2 55
e 3 22
e 3 40
e 3 47
e 3 54
e 3 55
e 3 57
e 4 21
e 4 22
e 4 32
e 4 44
e 4 45
e 4 47
e 4 49
e 4 51
e 5 21
e 5 22
e 5 36
e 5 41
e 5 49
e 5 57
e 6 23
e 6 24
e 6 26
e 6 36
e 6 40
e 6 44
e 6 48
e 6 52
e 6 53
e 6 55
e 7 24
e 7 26
e 7 28
e 7 50
e 7 59
e 8 21
e 8 28
e 8 29
e 8 36
e 8 46
e 8 48
e 8 58
e 8 59
e 9 23
e 9 25
e 9 35
e 9 36
e 9 38
e 9 42
e 9 45
e 9 47
e 9 48
e 9 52
e 9 53
e 9 56
e 9 59
e 10 22
e 10 24
e 10 26
e 10 27
e 10 28
e 10 29
e 10 33
e 10 34
e 10 40
e 10 44
e 10 48
e 10 52
e 10 54
e 10 55
e 11 28
e 11 30
e 11 33
e 11 37
e 11 39
e 11 55
e 11 57
e 11 59
e 11 60
e 12 23
e 12 25
e 12 26
e 12 40
e 12 47
e 12 59
e 13 22
e 13 29
e 13 31
e 13 33
e 13 37
e 13 38
e 13 39
e 13 40
e 13 47
e 13 48
e 13 49
e 13 52
e 13 53
e 13 58
e 13 59
e 13 60
e 14 24
e 14 26
e 14 30
e 14 34
e 14 38
e 14 39
e 14 40
e 14 41
e 14 42
e 14 44
e 14 48
e 14 49
e 14 58
e 15 21
e 15 31
e 15 32
e 15 38
e 15 40
e 15 47
e 15 48
e 15 52
e 15 54
e 15 56
e 16 25
e 16 29
e 16 31
e 16 32
e 16 33
e 16 37
e 16 38
e 16 42
e 16 47
e 16 49
e 16 54
e 17 21
e 17 22
e 17 23
e 17 27
e 17 29
e 17 33
e 17 34
e 17 43
e 17 46
e 17 47
e 18 22
e 18 23
e 18 39
e 18 40
e 18 52
e 19 28
e 19 29
e 19 32
e 19 48
e 20 24
e 20 34
e 20 37
e 20 40
e 20 51
e 20 57
e 21 41
e 21 42
e 21 43
e 21 44
e 21 46
e 21 53
e 21 54
e 21 55
e 21 57
e 21 60
e 22 41
e 22 42
e 22 43
e 22 48
e 22 49
e 22 55
e 22 57
e 22 58
e 23 47
e 23 49
e 23 51
e 23 52
e 23 53
e 24 43
e 24 48
e 24 54
e 24 55
e 24 56
e 24 57
e 24 58
e 24 60
e 25 44
e 25 49
e 25 58
e 26 42
e 26 43
e 26 44
e 26 45
e 26 46
e 26 55
e 26 58
e 26 59
e 27 41
e 27 43
e 27 49
e 27 50
e 27 53
e 27 56
e 27 58
e 28 44
e 28 45
e 28 46
e 28 53
e 29 47
e 29 52
e 30 42
e 30 44
e 30 45
e 30 51
e 30 52
e 30 57
e 31 45
e 31 49
e 31 51
e 31 54
e 31 56
e 31 57
e 32 45
e 32 49
e 32 55
e 32 56
e 33 50
e 33 56
e 34 42
e 34 43
e 34 56
e 34 60
e 35 42
e 35 44
e 35 53
e 35 55
e 35 57
e 35 59
e 36 42
e 36 44
e 36 46
e 36 50
e 36 55
e 36 56
e 36 58
e 36 60
e 37 52
e 37 57
e 37 59
e 38 42
e 38 43
e 38 44
e 38 47
e 38 49
e 39 45
e 39 48
e 40 48
e 40 50
e 40 55
e 40 56
e 40 59
e 40 60
