c FILE: balanced_graphs/balanced_140_7_10_1.col
c
c DESCRIPTION: Random balanced graph, 140 nodes,
c              partitions 7
c              edge probability 0.1
c
c G(140,7,0.1) graph
c number of vertices : 140
c max number of edges: 9730
c edge probability   : 0.1
c
c           Graph Stats
c number of vertices  : 140
c nonisolated vertices: 140
c number of edges     : 826
c edge density        : 0.0849
c max degree          : 21
c avg degree          : 11.80
c min degree          : 4
c
p col 140 826
e 1 30
e 1 66
e 1 87
e 1 89
e 1 105
e 1 109
e 1 112
e 1 117
e 1 124
e 1 138
e 1 140
e 2 33
e 2 35
e 2 36
e 2 49
e 2 93
e 2 112
e 2 123
e 2 124
e 2 134
e 3 23
e 3 46
e 3 49
e 3 55
e 3 59
e 3 63
e 3 80
e 3 103
e 3 116
e 3 127
e 3 132
e 3 139
e 4 35
e 4 39
e 4 63
e 4 69
e 4 74
e 4 83
e 4 84
e 4 113
e 4 116
e 5 21
e 5 35
e 5 52
e 5 65
e 5 70
e 5 82
e 5 86
e 5 112
e 5 120
e 6 23
e 6 31
e 6 45
e 6 57
e 6 71
e 6 77
e 6 84
e 6 89
e 6 99
e 6 106
e 6 139
e 7 38
e 7 40
e 7 42
e 7 56
e 7 64
e 7 104
e 7 111
e 7 131
e 8 21
e 8 23
e 8 29
e 8 35
e 8 45
e 8 48
e 8 49
e 8 63
e 8 64
e 8 69
e 8 71
e 8 72
e 8 75
e 8 80
e 8 82
e 8 85
e 8 95
e 8 103
e 8 104
e 8 109
e 8 117
e 9 22
e 9 24
e 9 26
e 9 29
e 9 42
e 9 52
e 9 73
e 9 86
e 9 90
e 9 91
e 9 105
e 9 106
e 9 121
e 9 122
e 9 125
e 9 126
e 10 32
e 10 36
e 10 40
e 10 46
e 10 52
e 10 65
e 10 66
e 10 81
e 10 97
e 10 100
e 10 101
e 10 108
e 10 130
e 10 132
e 11 31
e 11 43
e 11 77
e 11 78
e 11 91
e 11 93
e 11 103
e 11 107
e 11 114
e 11 115
e 11 120
e 11 125
e 11 134
e 11 139
e 12 21
e 12 27
e 12 36
e 12 38
e 12 108
e 12 115
e 12 117
e 12 121
e 12 132
e 12 135
e 13 23
e 13 26
e 13 29
e 13 57
e 13 64
e 13 71
e 13 77
e 13 83
e 13 87
e 13 94
e 13 97
e 13 107
e 13 118
e 13 135
e 13 138
e 14 41
e 14 50
e 14 51
e 14 81
e 14 85
e 14 89
e 14 91
e 14 100
e 14 118
e 15 36
e 15 43
e 15 45
e 15 54
e 15 56
e 15 58
e 15 67
e 15 75
e 15 82
e 15 87
e 15 105
e 15 114
e 15 126
e 16 28
e 16 46
e 16 56
e 16 77
e 16 78
e 16 90
e 16 109
e 16 117
e 16 136
e 16 139
e 17 22
e 17 25
e 17 28
e 17 42
e 17 60
e 17 64
e 17 71
e 17 74
e 17 83
e 17 86
e 17 89
e 17 90
e 17 93
e 17 97
e 17 105
e 17 109
e 17 117
e 17 124
e 17 127
e 17 135
e 17 140
e 18 22
e 18 30
e 18 32
e 18 33
e 18 80
e 18 81
e 18 87
e 18 90
e 18 92
e 18 110
e 18 112
e 18 114
e 18 124
e 18 138
e 19 27
e 19 28
e 19 56
e 19 68
e 19 120
e 20 24
e 20 25
e 20 35
e 20 60
e 20 71
e 20 72
e 20 79
e 20 95
e 20 125
e 21 41
e 21 46
e 21 56
e 21 62
e 21 76
e 21 82
e 21 114
e 21 124
e 21 129
e 22 44
e 22 51
e 22 68
e 22 71
e 22 73
e 22 77
e 22 82
e 22 97
e 22 108
e 22 126
e 22 134
e 22 135
e 22 139
e 23 43
e 23 60
e 23 61
e 23 63
e 23 71
e 23 74
e 23 84
e 23 85
e 23 86
e 23 88
e 23 89
e 23 104
e 23 124
e 23 125
e 23 127
e 23 132
e 23 133
e 24 43
e 24 58
e 24 81
e 24 95
e 24 96
e 24 112
e 24 121
e 24 132
e 25 41
e 25 48
e 25 50
e 25 62
e 25 76
e 25 129
e 25 138
e 26 44
e 26 45
e 26 49
e 26 50
e 26 59
e 26 65
e 26 88
e 26 100
e 26 121
e 26 126
e 27 44
e 27 47
e 27 73
e 27 81
e 27 109
e 27 119
e 28 57
e 28 62
e 28 64
e 28 69
e 28 77
e 28 83
e 28 92
e 28 102
e 28 131
e 28 132
e 28 134
e 29 43
e 29 45
e 29 48
e 29 50
e 29 56
e 29 123
e 29 132
e 30 47
e 30 54
e 30 55
e 30 76
e 30 81
e 30 86
e 30 90
e 30 99
e 30 115
e 30 117
e 30 122
e 30 126
e 30 138
e 31 50
e 31 53
e 31 63
e 31 64
e 31 71
e 31 75
e 31 87
e 31 89
e 31 116
e 31 121
e 31 122
e 31 125
e 31 137
e 32 45
e 32 59
e 33 55
e 33 56
e 33 73
e 33 76
e 33 88
e 33 103
e 33 111
e 33 119
e 34 47
e 34 55
e 34 56
e 34 63
e 34 68
e 34 72
e 34 76
e 34 83
e 34 103
e 34 116
e 34 127
e 34 134
e 34 137
e 35 59
e 35 64
e 35 76
e 35 78
e 35 84
e 35 106
e 35 108
e 35 109
e 36 51
e 36 52
e 36 53
e 36 76
e 36 123
e 36 135
e 37 57
e 37 67
e 37 76
e 37 79
e 37 93
e 37 96
e 37 102
e 37 112
e 37 127
e 37 136
e 38 41
e 38 52
e 38 56
e 38 73
e 38 84
e 38 87
e 38 99
e 38 101
e 38 127
e 38 129
e 38 140
e 39 43
e 39 45
e 39 63
e 39 69
e 39 73
e 39 78
e 39 79
e 39 86
e 39 92
e 39 123
e 40 50
e 40 59
e 40 67
e 40 76
e 40 103
e 40 104
e 40 105
e 40 106
e 40 107
e 40 111
e 40 118
e 40 129
e 41 73
e 41 81
e 41 82
e 41 92
e 41 97
e 41 109
e 41 112
e 41 113
e 41 115
e 41 137
e 42 70
e 42 74
e 42 86
e 42 87
e 42 114
e 42 126
e 42 132
e 42 136
e 42 138
e 43 62
e 43 78
e 43 91
e 44 65
e 44 66
e 44 68
e 44 69
e 44 74
e 44 79
e 44 101
e 44 106
e 44 115
e 44 135
e 45 81
e 45 90
e 45 97
e 45 113
e 46 69
e 46 71
e 46 76
e 46 81
e 46 99
e 46 114
e 46 120
e 46 139
e 47 67
e 47 70
e 47 82
e 47 83
e 47 108
e 47 112
e 47 120
e 47 122
e 47 130
e 47 137
e 48 63
e 48 89
e 48 102
e 49 91
e 49 103
e 49 115
e 49 120
e 50 61
e 50 95
e 50 107
e 50 114
e 50 115
e 51 68
e 51 78
e 51 85
e 51 102
e 51 113
e 51 118
e 51 120
e 52 67
e 52 80
e 52 82
e 52 87
e 52 90
e 52 98
e 52 118
e 52 119
e 52 120
e 52 132
e 53 76
e 53 78
e 53 81
e 53 82
e 53 84
e 53 93
e 53 96
e 53 99
e 53 101
e 53 105
e 53 107
e 53 132
e 54 69
e 54 72
e 54 88
e 54 91
e 54 114
e 55 70
e 55 78
e 55 81
e 55 87
e 55 117
e 55 129
e 56 67
e 56 79
e 56 80
e 56 84
e 56 88
e 56 89
e 56 93
e 56 95
e 56 107
e 56 129
e 56 136
e 57 67
e 57 73
e 57 82
e 57 83
e 57 94
e 57 107
e 57 119
e 57 130
e 58 68
e 58 98
e 58 99
e 58 106
e 58 108
e 58 112
e 58 124
e 58 135
e 59 61
e 59 64
e 59 71
e 59 91
e 59 96
e 59 109
e 59 121
e 59 123
e 60 66
e 60 72
e 60 81
e 60 89
e 60 93
e 60 132
e 60 133
e 61 88
e 61 90
e 61 126
e 61 140
e 62 90
e 62 122
e 62 132
e 62 135
e 62 136
e 63 89
e 63 90
e 63 113
e 63 114
e 63 117
e 63 136
e 64 86
e 64 104
e 64 109
e 64 110
e 64 120
e 64 121
e 65 88
e 65 99
e 65 103
e 65 107
e 65 109
e 65 115
e 65 118
e 65 124
e 65 125
e 65 131
e 65 139
e 66 86
e 66 87
e 66 95
e 66 109
e 66 114
e 66 123
e 66 126
e 66 136
e 67 91
e 67 104
e 67 107
e 67 111
e 67 115
e 67 121
e 67 123
e 67 136
e 68 86
e 68 100
e 68 123
e 68 132
e 68 135
e 68 137
e 68 138
e 68 140
e 69 86
e 69 90
e 69 101
e 69 123
e 69 132
e 69 140
e 70 116
e 70 124
e 71 89
e 71 129
e 71 133
e 72 83
e 72 94
e 72 95
e 72 117
e 72 118
e 72 127
e 72 139
e 73 86
e 73 88
e 73 97
e 73 101
e 73 111
e 73 118
e 73 126
e 74 86
e 74 94
e 74 97
e 74 104
e 74 121
e 74 131
e 74 136
e 75 84
e 75 94
e 75 107
e 75 120
e 75 131
e 75 135
e 76 85
e 76 87
e 76 90
e 76 106
e 76 122
e 77 98
e 77 102
e 77 105
e 77 121
e 77 126
e 77 127
e 77 134
e 77 139
e 78 89
e 78 92
e 78 96
e 78 122
e 78 131
e 78 133
e 78 135
e 78 138
e 79 87
e 79 106
e 79 117
e 79 122
e 79 123
e 79 131
e 79 137
e 79 139
e 80 90
e 80 96
e 80 104
e 80 106
e 80 110
e 80 136
e 81 120
e 81 136
e 81 140
e 82 102
e 82 121
e 82 124
e 82 134
e 83 124
e 83 128
e 83 130
e 84 123
e 84 127
e 84 135
e 85 105
e 85 111
e 85 112
e 85 127
e 86 101
e 86 124
e 86 133
e 86 137
e 87 117
e 87 128
e 87 129
e 88 109
e 88 121
e 88 129
e 88 133
e 88 139
e 89 118
e 90 128
e 90 135
e 91 111
e 91 119
e 91 131
e 92 106
e 92 113
e 92 123
e 92 126
e 92 130
e 92 132
e 93 106
e 93 114
e 93 121
e 93 127
e 93 131
e 93 137
e 94 103
e 94 104
e 94 109
e 94 110
e 94 124
e 94 136
e 94 139
e 95 102
e 95 107
e 95 118
e 95 121
e 95 125
e 95 126
e 96 135
e 97 103
e 97 114
e 97 124
e 97 129
e 97 137
e 98 101
e 98 111
e 98 113
e 98 127
e 98 136
e 98 139
e 99 108
e 99 132
e 99 133
e 99 134
e 99 138
e 100 101
e 100 117
e 100 135
e 101 123
e 102 140
e 103 128
e 103 131
e 103 132
e 105 133
e 105 137
e 106 121
e 106 135
e 107 124
e 107 139
e 108 126
e 109 131
e 109 134
e 109 139
e 110 122
e 111 130
e 112 135
e 113 136
e 113 139
e 116 128
e 116 132
e 116 135
e 117 128
e 117 131
e 117 134
e 117 136
e 117 137
e 117 138
e 118 128
e 119 121
e 119 124
e 119 132
e 120 128
e 120 138
