c FILE: balanced_graphs/balanced_100_5_25_1.col
c
c DESCRIPTION: Random balanced graph, 100 nodes,
c              partitions 5
c              edge probability 0.25
c
c G(100,5,0.25) graph
c number of vertices : 100
c max number of edges: 4950
c edge probability   : 0.25
c
c           Graph Stats
c number of vertices  : 100
c nonisolated vertices: 100
c number of edges     : 997
c edge density        : 0.2014
c max degree          : 28
c avg degree          : 19.94
c min degree          : 9
c
p col 100 997
e 1 22
e 1 28
e 1 33
e 1 34
e 1 37
e 1 39
e 1 42
e 1 44
e 1 50
e 1 56
e 1 59
e 1 68
e 1 72
e 1 78
e 1 80
e 1 94
e 1 97
e 1 98
e 1 99
e 2 23
e 2 33
e 2 36
e 2 37
e 2 38
e 2 39
e 2 47
e 2 48
e 2 52
e 2 57
e 2 62
e 2 63
e 2 66
e 2 68
e 2 71
e 2 72
e 2 82
e 2 83
e 2 87
e 2 100
e 3 21
e 3 30
e 3 37
e 3 38
e 3 46
e 3 47
e 3 49
e 3 51
e 3 56
e 3 57
e 3 58
e 3 59
e 3 63
e 3 69
e 3 81
e 3 84
e 3 96
e 4 21
e 4 22
e 4 27
e 4 28
e 4 31
e 4 33
e 4 37
e 4 40
e 4 41
e 4 42
e 4 45
e 4 53
e 4 55
e 4 57
e 4 58
e 4 61
e 4 62
e 4 80
e 4 84
e 4 85
e 4 86
e 4 96
e 4 99
e 5 25
e 5 32
e 5 36
e 5 38
e 5 50
e 5 51
e 5 54
e 5 55
e 5 56
e 5 81
e 5 83
e 5 88
e 5 93
e 5 95
e 5 96
e 6 25
e 6 31
e 6 47
e 6 48
e 6 51
e 6 52
e 6 53
e 6 55
e 6 58
e 6 59
e 6 65
e 6 69
e 6 85
e 6 91
e 6 95
e 6 96
e 6 97
e 6 98
e 6 100
e 7 24
e 7 29
e 7 32
e 7 44
e 7 50
e 7 54
e 7 62
e 7 64
e 7 76
e 7 83
e 7 84
e 7 87
e 7 88
e 7 94
e 7 99
e 8 26
e 8 27
e 8 30
e 8 34
e 8 40
e 8 42
e 8 47
e 8 48
e 8 52
e 8 53
e 8 55
e 8 57
e 8 65
e 8 69
e 8 78
e 8 81
e 8 87
e 8 88
e 8 89
e 8 90
e 8 92
e 8 95
e 8 97
e 9 21
e 9 22
e 9 26
e 9 39
e 9 40
e 9 41
e 9 42
e 9 44
e 9 49
e 9 50
e 9 55
e 9 70
e 9 71
e 9 75
e 9 80
e 9 85
e 9 86
e 10 23
e 10 27
e 10 32
e 10 35
e 10 37
e 10 43
e 10 49
e 10 53
e 10 60
e 10 66
e 10 70
e 10 72
e 10 74
e 10 78
e 10 90
e 10 96
e 10 97
e 10 99
e 11 22
e 11 24
e 11 25
e 11 27
e 11 28
e 11 30
e 11 38
e 11 40
e 11 50
e 11 51
e 11 52
e 11 53
e 11 58
e 11 77
e 11 79
e 11 81
e 11 98
e 12 22
e 12 23
e 12 26
e 12 36
e 12 38
e 12 42
e 12 50
e 12 62
e 12 65
e 12 66
e 12 69
e 12 73
e 12 74
e 12 77
e 12 82
e 12 83
e 12 85
e 12 87
e 12 88
e 12 93
e 12 96
e 12 99
e 13 26
e 13 29
e 13 30
e 13 31
e 13 34
e 13 35
e 13 36
e 13 40
e 13 45
e 13 46
e 13 47
e 13 57
e 13 58
e 13 62
e 13 63
e 13 68
e 13 69
e 13 72
e 13 73
e 13 74
e 13 83
e 13 86
e 13 87
e 13 89
e 13 90
e 13 91
e 13 93
e 14 22
e 14 24
e 14 26
e 14 27
e 14 28
e 14 30
e 14 31
e 14 35
e 14 36
e 14 38
e 14 39
e 14 40
e 14 42
e 14 44
e 14 47
e 14 50
e 14 55
e 14 59
e 14 62
e 14 63
e 14 72
e 14 82
e 14 84
e 14 85
e 14 86
e 14 88
e 14 95
e 15 22
e 15 25
e 15 26
e 15 27
e 15 31
e 15 32
e 15 33
e 15 37
e 15 41
e 15 42
e 15 43
e 15 45
e 15 50
e 15 51
e 15 53
e 15 60
e 15 64
e 15 65
e 15 67
e 15 71
e 15 78
e 15 82
e 15 85
e 15 87
e 15 91
e 15 92
e 15 94
e 15 96
e 16 30
e 16 32
e 16 34
e 16 35
e 16 41
e 16 42
e 16 43
e 16 44
e 16 46
e 16 50
e 16 51
e 16 52
e 16 71
e 16 75
e 16 80
e 16 82
e 16 92
e 16 93
e 16 94
e 16 96
e 17 30
e 17 31
e 17 39
e 17 43
e 17 46
e 17 61
e 17 63
e 17 73
e 17 74
e 18 25
e 18 28
e 18 29
e 18 36
e 18 45
e 18 47
e 18 59
e 18 64
e 18 81
e 18 86
e 18 90
e 18 93
e 18 96
e 18 97
e 19 24
e 19 33
e 19 35
e 19 36
e 19 43
e 19 50
e 19 57
e 19 58
e 19 60
e 19 63
e 19 67
e 19 74
e 19 75
e 19 77
e 19 85
e 19 86
e 19 94
e 20 21
e 20 28
e 20 29
e 20 37
e 20 40
e 20 42
e 20 46
e 20 56
e 20 61
e 20 63
e 20 68
e 20 70
e 20 76
e 20 80
e 20 89
e 20 90
e 20 92
e 20 94
e 20 98
e 21 41
e 21 43
e 21 44
e 21 45
e 21 49
e 21 50
e 21 57
e 21 58
e 21 65
e 21 68
e 21 75
e 21 81
e 21 90
e 21 92
e 21 95
e 21 96
e 21 98
e 21 100
e 22 45
e 22 50
e 22 55
e 22 59
e 22 64
e 22 67
e 22 72
e 22 81
e 22 84
e 22 86
e 22 87
e 23 47
e 23 49
e 23 55
e 23 57
e 23 66
e 23 70
e 23 76
e 23 78
e 23 79
e 23 83
e 23 92
e 23 93
e 23 95
e 23 98
e 23 99
e 24 41
e 24 42
e 24 43
e 24 44
e 24 47
e 24 53
e 24 74
e 24 83
e 24 84
e 24 85
e 24 90
e 24 94
e 24 95
e 25 43
e 25 56
e 25 60
e 25 61
e 25 69
e 25 75
e 25 76
e 25 83
e 25 92
e 25 93
e 25 94
e 25 95
e 25 97
e 26 45
e 26 48
e 26 50
e 26 56
e 26 62
e 26 63
e 26 64
e 26 72
e 26 75
e 26 76
e 26 80
e 26 82
e 26 84
e 26 86
e 26 89
e 26 94
e 26 95
e 26 99
e 27 44
e 27 46
e 27 49
e 27 50
e 27 52
e 27 54
e 27 62
e 27 68
e 27 69
e 27 79
e 27 87
e 27 93
e 27 99
e 28 43
e 28 46
e 28 55
e 28 60
e 28 73
e 28 74
e 28 76
e 28 77
e 28 78
e 28 82
e 28 89
e 28 92
e 28 93
e 28 97
e 29 41
e 29 52
e 29 55
e 29 62
e 29 68
e 29 71
e 29 72
e 29 73
e 29 80
e 29 82
e 29 87
e 29 88
e 29 93
e 30 51
e 30 61
e 30 70
e 30 77
e 30 87
e 30 90
e 30 91
e 30 97
e 31 42
e 31 48
e 31 51
e 31 54
e 31 63
e 31 67
e 31 71
e 31 81
e 31 86
e 31 88
e 31 91
e 31 94
e 31 95
e 31 97
e 31 98
e 32 44
e 32 45
e 32 53
e 32 58
e 32 63
e 32 65
e 32 71
e 32 73
e 32 74
e 32 77
e 32 78
e 32 79
e 32 80
e 32 87
e 32 89
e 32 93
e 32 95
e 32 96
e 33 44
e 33 45
e 33 46
e 33 48
e 33 50
e 33 52
e 33 66
e 33 67
e 33 69
e 33 73
e 33 76
e 33 79
e 33 80
e 33 85
e 33 92
e 33 94
e 33 95
e 33 96
e 33 98
e 34 50
e 34 53
e 34 58
e 34 64
e 34 65
e 34 66
e 34 67
e 34 71
e 34 73
e 34 77
e 34 80
e 34 85
e 34 90
e 34 94
e 34 98
e 34 99
e 34 100
e 35 45
e 35 46
e 35 50
e 35 53
e 35 58
e 35 65
e 35 66
e 35 71
e 35 73
e 35 75
e 35 76
e 35 89
e 35 90
e 35 92
e 35 94
e 35 95
e 35 100
e 36 47
e 36 49
e 36 58
e 36 62
e 36 69
e 36 71
e 36 72
e 36 73
e 36 80
e 36 83
e 36 85
e 36 88
e 36 93
e 36 96
e 37 41
e 37 47
e 37 49
e 37 53
e 37 56
e 37 57
e 37 62
e 37 66
e 37 76
e 37 82
e 37 88
e 37 91
e 37 93
e 37 99
e 38 44
e 38 46
e 38 60
e 38 63
e 38 64
e 38 65
e 38 69
e 38 73
e 38 76
e 38 78
e 38 82
e 38 84
e 38 87
e 38 91
e 38 93
e 38 98
e 39 50
e 39 52
e 39 57
e 39 60
e 39 72
e 39 74
e 39 75
e 39 76
e 39 91
e 40 41
e 40 52
e 40 55
e 40 72
e 40 73
e 40 74
e 40 77
e 40 91
e 40 96
e 40 99
e 41 68
e 41 70
e 41 71
e 41 73
e 41 74
e 41 78
e 41 82
e 41 100
e 42 68
e 42 69
e 42 74
e 42 79
e 42 80
e 42 81
e 42 82
e 42 88
e 42 91
e 42 92
e 42 94
e 42 95
e 42 99
e 43 61
e 43 62
e 43 71
e 43 72
e 43 79
e 43 81
e 43 86
e 43 87
e 43 88
e 43 90
e 43 94
e 43 97
e 44 68
e 44 78
e 44 80
e 44 81
e 44 83
e 44 86
e 44 97
e 44 98
e 45 63
e 45 68
e 45 70
e 45 71
e 45 78
e 45 83
e 45 84
e 45 89
e 45 90
e 45 91
e 45 97
e 45 98
e 45 100
e 46 61
e 46 67
e 46 71
e 46 73
e 46 75
e 46 77
e 46 78
e 46 85
e 46 87
e 46 100
e 47 62
e 47 64
e 47 67
e 47 81
e 47 85
e 47 91
e 47 95
e 47 99
e 48 63
e 48 65
e 48 70
e 48 71
e 48 73
e 48 79
e 48 81
e 48 83
e 48 86
e 48 92
e 48 95
e 48 100
e 49 64
e 49 71
e 49 77
e 49 82
e 49 88
e 49 90
e 49 100
e 50 62
e 50 67
e 50 71
e 50 80
e 50 83
e 50 94
e 50 95
e 50 96
e 51 62
e 51 63
e 51 64
e 51 65
e 51 71
e 51 76
e 51 80
e 51 83
e 51 91
e 51 92
e 51 93
e 51 95
e 51 99
e 51 100
e 52 66
e 52 69
e 52 71
e 52 72
e 52 77
e 52 78
e 52 82
e 52 87
e 52 88
e 52 89
e 52 92
e 52 94
e 52 95
e 52 99
e 52 100
e 53 63
e 53 67
e 53 68
e 53 69
e 53 72
e 53 74
e 53 75
e 53 76
e 53 77
e 53 82
e 53 84
e 53 90
e 53 94
e 53 99
e 53 100
e 54 63
e 54 66
e 54 68
e 54 70
e 54 72
e 54 75
e 54 81
e 54 83
e 54 91
e 54 93
e 54 94
e 55 63
e 55 68
e 55 69
e 55 71
e 55 76
e 55 77
e 55 82
e 55 84
e 55 89
e 55 98
e 56 61
e 56 66
e 56 69
e 56 77
e 56 79
e 56 82
e 56 84
e 56 85
e 56 86
e 56 87
e 56 91
e 56 96
e 56 97
e 56 98
e 57 61
e 57 64
e 57 67
e 57 69
e 57 76
e 57 80
e 57 81
e 57 88
e 57 90
e 57 93
e 57 95
e 57 100
e 58 61
e 58 62
e 58 63
e 58 73
e 58 75
e 58 78
e 58 86
e 58 94
e 58 96
e 58 98
e 58 100
e 59 62
e 59 71
e 59 77
e 59 80
e 59 85
e 59 91
e 59 97
e 59 99
e 60 64
e 60 65
e 60 66
e 60 68
e 60 77
e 60 85
e 60 87
e 60 88
e 60 91
e 60 97
e 61 82
e 61 85
e 61 91
e 61 93
e 61 98
e 62 81
e 62 85
e 62 89
e 62 90
e 62 96
e 62 98
e 62 99
e 63 86
e 63 88
e 63 91
e 63 96
e 63 100
e 64 89
e 65 85
e 65 86
e 65 88
e 65 92
e 65 94
e 65 96
e 65 97
e 66 81
e 66 84
e 66 87
e 66 88
e 66 89
e 66 91
e 66 93
e 66 94
e 66 97
e 67 84
e 67 87
e 67 88
e 67 92
e 67 95
e 68 81
e 68 84
e 68 85
e 68 89
e 68 90
e 68 97
e 68 100
e 69 87
e 69 88
e 69 92
e 69 97
e 69 100
e 70 81
e 70 89
e 70 90
e 70 93
e 70 94
e 70 99
e 70 100
e 71 85
e 71 88
e 71 91
e 71 97
e 71 100
e 72 81
e 72 84
e 72 89
e 72 93
e 73 82
e 73 83
e 73 84
e 73 91
e 73 95
e 73 99
e 73 100
e 74 84
e 74 88
e 74 89
e 74 98
e 74 99
e 75 82
e 75 83
e 75 88
e 75 92
e 75 93
e 75 98
e 76 98
e 77 81
e 77 90
e 77 95
e 77 97
e 77 100
e 78 82
e 78 83
e 78 86
e 78 91
e 78 92
e 78 96
e 79 85
e 79 87
e 79 94
e 79 96
e 79 100
e 80 81
e 80 83
e 80 93
e 80 95
e 80 98
