c FILE: balanced_graphs/balanced_100_5_10_4.col
c
c DESCRIPTION: Random balanced graph, 100 nodes,
c              partitions 5
c              edge probability 0.1
c
c G(100,5,0.1) graph
c number of vertices : 100
c max number of edges: 4950
c edge probability   : 0.1
c
c           Graph Stats
c number of vertices  : 100
c nonisolated vertices: 100
c number of edges     : 394
c edge density        : 0.0796
c max degree          : 15
c avg degree          : 7.88
c min degree          : 2
c
p col 100 394
e 1 50
e 1 52
e 1 72
e 1 76
e 1 82
e 1 97
e 2 37
e 2 46
e 2 47
e 2 57
e 2 80
e 2 95
e 2 99
e 3 25
e 3 48
e 3 52
e 3 71
e 3 91
e 3 94
e 4 32
e 4 36
e 4 43
e 4 49
e 4 58
e 4 67
e 4 73
e 4 81
e 4 95
e 4 97
e 4 99
e 5 25
e 5 33
e 5 41
e 5 74
e 5 84
e 5 85
e 5 95
e 6 34
e 6 41
e 6 43
e 6 73
e 6 77
e 6 78
e 6 79
e 6 82
e 6 91
e 6 96
e 7 23
e 7 28
e 7 39
e 7 49
e 7 53
e 7 60
e 7 61
e 7 70
e 7 81
e 7 90
e 7 91
e 7 92
e 7 100
e 8 28
e 8 38
e 8 45
e 8 50
e 8 59
e 8 69
e 8 70
e 8 72
e 8 95
e 9 34
e 9 44
e 9 45
e 9 54
e 9 62
e 9 92
e 9 94
e 9 97
e 9 98
e 10 71
e 10 74
e 10 82
e 11 39
e 11 42
e 11 57
e 11 70
e 11 72
e 11 92
e 11 93
e 11 100
e 12 21
e 12 27
e 12 37
e 12 48
e 12 51
e 12 61
e 12 74
e 12 78
e 12 84
e 13 21
e 13 27
e 13 45
e 13 56
e 13 64
e 13 66
e 13 67
e 13 69
e 13 76
e 13 82
e 13 87
e 13 88
e 14 24
e 14 57
e 14 77
e 14 83
e 14 95
e 15 21
e 15 24
e 15 28
e 15 30
e 15 44
e 15 75
e 15 79
e 15 88
e 15 92
e 15 94
e 15 98
e 16 46
e 16 57
e 16 61
e 16 88
e 16 100
e 17 44
e 17 45
e 17 74
e 17 75
e 17 88
e 17 92
e 17 94
e 17 100
e 18 30
e 18 42
e 18 48
e 18 49
e 18 82
e 18 87
e 18 90
e 19 27
e 19 28
e 19 40
e 19 41
e 19 45
e 19 52
e 19 53
e 19 63
e 19 73
e 19 78
e 19 91
e 19 96
e 20 29
e 20 31
e 20 33
e 20 52
e 20 58
e 20 71
e 20 74
e 20 77
e 20 84
e 20 95
e 20 100
e 21 60
e 21 75
e 22 42
e 22 43
e 22 45
e 22 48
e 22 62
e 22 66
e 22 85
e 23 52
e 23 64
e 23 74
e 23 81
e 23 82
e 23 98
e 23 100
e 24 48
e 24 82
e 24 96
e 25 41
e 25 49
e 25 84
e 26 76
e 26 79
e 26 97
e 26 99
e 27 48
e 27 50
e 27 75
e 27 80
e 28 42
e 28 45
e 28 56
e 28 60
e 28 62
e 28 68
e 28 90
e 28 93
e 28 96
e 28 97
e 29 42
e 29 50
e 29 61
e 29 77
e 29 93
e 30 50
e 30 55
e 30 76
e 30 79
e 30 86
e 30 89
e 30 95
e 30 96
e 31 66
e 31 79
e 31 84
e 31 86
e 32 50
e 32 56
e 32 59
e 32 69
e 33 61
e 33 88
e 34 79
e 34 82
e 34 85
e 34 89
e 34 90
e 35 45
e 35 49
e 35 50
e 35 64
e 35 71
e 35 74
e 35 84
e 35 85
e 35 88
e 35 95
e 36 45
e 36 48
e 36 56
e 36 66
e 36 89
e 36 94
e 36 96
e 37 80
e 37 84
e 38 42
e 38 43
e 38 47
e 38 60
e 38 95
e 39 60
e 39 64
e 39 71
e 40 76
e 40 82
e 40 84
e 40 85
e 40 93
e 41 64
e 41 70
e 41 79
e 41 91
e 42 81
e 42 82
e 42 87
e 42 98
e 42 99
e 43 75
e 43 92
e 43 100
e 44 73
e 44 99
e 45 62
e 45 65
e 45 68
e 45 75
e 45 87
e 45 92
e 46 70
e 46 71
e 46 75
e 46 76
e 46 88
e 46 100
e 47 69
e 47 72
e 47 80
e 48 71
e 48 77
e 48 82
e 49 69
e 49 74
e 49 97
e 50 71
e 50 73
e 50 87
e 50 91
e 51 62
e 51 66
e 52 76
e 52 80
e 52 92
e 52 96
e 52 98
e 53 75
e 53 77
e 53 89
e 54 68
e 54 70
e 54 91
e 55 100
e 56 74
e 56 92
e 56 94
e 57 80
e 58 65
e 58 67
e 58 70
e 58 71
e 58 95
e 58 98
e 59 80
e 60 71
e 60 79
e 61 84
e 61 86
e 61 91
e 61 94
e 62 83
e 62 84
e 63 91
e 64 87
e 64 91
e 65 81
e 65 85
e 65 87
e 65 92
e 65 96
e 65 99
e 66 84
e 66 93
e 67 87
e 67 88
e 67 94
e 68 83
e 68 84
e 68 85
e 68 86
e 68 92
e 68 100
e 70 87
e 70 100
e 71 88
e 71 89
e 71 90
e 72 81
e 72 90
e 72 93
e 73 82
e 73 88
e 73 90
e 73 91
e 74 81
e 74 86
e 74 88
e 74 92
e 74 96
e 75 99
e 76 91
e 76 95
e 76 98
e 76 100
e 77 84
e 77 88
e 78 82
e 78 85
e 78 97
e 78 98
e 78 100
e 80 81
e 80 83
e 80 88
e 80 98
