c FILE: balanced_graphs/balanced_60_3_75_2.col
c
c DESCRIPTION: Random balanced graph, 60 nodes,
c              partitions 3
c              edge probability 0.75
c
c G(60,3,0.75) graph
c number of vertices : 60
c max number of edges: 1770
c edge probability   : 0.75
c
c           Graph Stats
c number of vertices  : 60
c nonisolated vertices: 60
c number of edges     : 887
c edge density        : 0.5011
c max degree          : 37
c avg degree          : 29.57
c min degree          : 21
c
p col 60 887
e 1 22
e 1 23
e 1 24
e 1 25
e 1 26
e 1 27
e 1 29
e 1 30
e 1 31
e 1 34
e 1 35
e 1 36
e 1 37
e 1 38
e 1 39
e 1 41
e 1 42
e 1 43
e 1 44
e 1 45
e 1 46
e 1 47
e 1 49
e 1 53
e 1 54
e 1 56
e 1 57
e 1 58
e 1 59
e 1 60
e 2 21
e 2 23
e 2 24
e 2 26
e 2 27
e 2 28
e 2 29
e 2 30
e 2 32
e 2 34
e 2 35
e 2 36
e 2 38
e 2 39
e 2 40
e 2 41
e 2 42
e 2 44
e 2 45
e 2 48
e 2 49
e 2 50
e 2 52
e 2 53
e 2 54
e 2 55
e 2 56
e 2 57
e 2 58
e 2 60
e 3 21
e 3 22
e 3 23
e 3 24
e 3 25
e 3 26
e 3 27
e 3 29
e 3 30
e 3 31
e 3 32
e 3 33
e 3 34
e 3 36
e 3 37
e 3 38
e 3 39
e 3 40
e 3 41
e 3 43
e 3 44
e 3 45
e 3 46
e 3 49
e 3 50
e 3 51
e 3 52
e 3 53
e 3 55
e 3 56
e 3 57
e 3 58
e 3 59
e 3 60
e 4 22
e 4 23
e 4 26
e 4 27
e 4 28
e 4 29
e 4 30
e 4 31
e 4 33
e 4 34
e 4 37
e 4 38
e 4 39
e 4 41
e 4 42
e 4 43
e 4 44
e 4 46
e 4 47
e 4 50
e 4 52
e 4 53
e 4 54
e 4 55
e 4 56
e 4 57
e 4 59
e 4 60
e 5 21
e 5 22
e 5 23
e 5 24
e 5 25
e 5 26
e 5 27
e 5 29
e 5 30
e 5 32
e 5 33
e 5 34
e 5 35
e 5 36
e 5 37
e 5 39
e 5 40
e 5 41
e 5 42
e 5 43
e 5 44
e 5 45
e 5 46
e 5 47
e 5 48
e 5 51
e 5 52
e 5 53
e 5 54
e 5 55
e 5 56
e 5 57
e 5 58
e 5 60
e 6 21
e 6 23
e 6 24
e 6 25
e 6 27
e 6 29
e 6 30
e 6 33
e 6 34
e 6 36
e 6 37
e 6 38
e 6 39
e 6 40
e 6 41
e 6 42
e 6 44
e 6 45
e 6 46
e 6 48
e 6 49
e 6 50
e 6 51
e 6 52
e 6 53
e 6 55
e 6 56
e 6 57
e 6 58
e 6 59
e 6 60
e 7 21
e 7 22
e 7 23
e 7 24
e 7 26
e 7 29
e 7 30
e 7 32
e 7 34
e 7 35
e 7 37
e 7 40
e 7 41
e 7 42
e 7 43
e 7 45
e 7 46
e 7 50
e 7 51
e 7 52
e 7 54
e 7 55
e 7 56
e 7 57
e 7 59
e 8 21
e 8 22
e 8 24
e 8 26
e 8 27
e 8 28
e 8 29
e 8 30
e 8 31
e 8 35
e 8 36
e 8 38
e 8 39
e 8 40
e 8 41
e 8 44
e 8 45
e 8 46
e 8 47
e 8 48
e 8 49
e 8 50
e 8 51
e 8 52
e 8 54
e 8 55
e 8 56
e 8 57
e 8 58
e 8 59
e 9 24
e 9 25
e 9 26
e 9 27
e 9 28
e 9 29
e 9 30
e 9 31
e 9 32
e 9 34
e 9 35
e 9 36
e 9 37
e 9 38
e 9 39
e 9 42
e 9 47
e 9 48
e 9 49
e 9 50
e 9 51
e 9 52
e 9 53
e 9 55
e 9 56
e 9 57
e 9 58
e 9 59
e 10 21
e 10 22
e 10 25
e 10 28
e 10 30
e 10 32
e 10 33
e 10 36
e 10 37
e 10 38
e 10 39
e 10 40
e 10 41
e 10 42
e 10 43
e 10 44
e 10 46
e 10 47
e 10 48
e 10 49
e 10 53
e 10 54
e 10 55
e 10 56
e 10 58
e 10 60
e 11 21
e 11 22
e 11 23
e 11 24
e 11 25
e 11 26
e 11 27
e 11 28
e 11 29
e 11 30
e 11 31
e 11 32
e 11 33
e 11 34
e 11 36
e 11 38
e 11 39
e 11 40
e 11 41
e 11 43
e 11 44
e 11 46
e 11 47
e 11 48
e 11 50
e 11 51
e 11 56
e 11 57
e 11 58
e 11 60
e 12 21
e 12 22
e 12 23
e 12 24
e 12 25
e 12 26
e 12 28
e 12 29
e 12 31
e 12 32
e 12 33
e 12 34
e 12 36
e 12 38
e 12 39
e 12 40
e 12 41
e 12 42
e 12 45
e 12 46
e 12 47
e 12 48
e 12 51
e 12 52
e 12 53
e 12 54
e 12 55
e 12 56
e 12 57
e 12 59
e 13 21
e 13 22
e 13 23
e 13 26
e 13 27
e 13 28
e 13 29
e 13 30
e 13 31
e 13 32
e 13 34
e 13 35
e 13 36
e 13 37
e 13 38
e 13 39
e 13 40
e 13 41
e 13 44
e 13 45
e 13 46
e 13 47
e 13 48
e 13 49
e 13 52
e 13 53
e 13 54
e 13 55
e 13 56
e 13 57
e 13 59
e 13 60
e 14 21
e 14 24
e 14 25
e 14 27
e 14 28
e 14 30
e 14 32
e 14 33
e 14 34
e 14 35
e 14 36
e 14 37
e 14 38
e 14 40
e 14 41
e 14 42
e 14 43
e 14 44
e 14 45
e 14 46
e 14 47
e 14 48
e 14 49
e 14 50
e 14 51
e 14 52
e 14 55
e 14 59
e 14 60
e 15 21
e 15 22
e 15 23
e 15 24
e 15 25
e 15 26
e 15 28
e 15 29
e 15 32
e 15 34
e 15 35
e 15 36
e 15 39
e 15 41
e 15 42
e 15 43
e 15 44
e 15 45
e 15 46
e 15 47
e 15 50
e 15 51
e 15 52
e 15 53
e 15 54
e 15 55
e 15 56
e 15 57
e 15 58
e 15 59
e 15 60
e 16 22
e 16 23
e 16 24
e 16 26
e 16 27
e 16 28
e 16 29
e 16 31
e 16 34
e 16 36
e 16 37
e 16 38
e 16 39
e 16 40
e 16 41
e 16 42
e 16 44
e 16 45
e 16 46
e 16 47
e 16 48
e 16 51
e 16 52
e 16 54
e 16 55
e 16 56
e 16 57
e 16 59
e 16 60
e 17 21
e 17 22
e 17 23
e 17 24
e 17 26
e 17 27
e 17 28
e 17 30
e 17 31
e 17 32
e 17 34
e 17 35
e 17 37
e 17 39
e 17 40
e 17 41
e 17 42
e 17 43
e 17 44
e 17 45
e 17 46
e 17 47
e 17 48
e 17 49
e 17 50
e 17 51
e 17 52
e 17 53
e 17 54
e 17 55
e 17 56
e 17 57
e 17 58
e 17 59
e 18 21
e 18 22
e 18 24
e 18 25
e 18 26
e 18 27
e 18 29
e 18 30
e 18 31
e 18 32
e 18 33
e 18 34
e 18 35
e 18 36
e 18 37
e 18 38
e 18 39
e 18 41
e 18 42
e 18 43
e 18 44
e 18 45
e 18 46
e 18 47
e 18 49
e 18 50
e 18 52
e 18 54
e 18 55
e 18 56
e 18 57
e 18 58
e 18 59
e 18 60
e 19 21
e 19 22
e 19 23
e 19 24
e 19 25
e 19 26
e 19 27
e 19 28
e 19 29
e 19 31
e 19 32
e 19 35
e 19 36
e 19 38
e 19 39
e 19 40
e 19 41
e 19 42
e 19 46
e 19 47
e 19 48
e 19 49
e 19 50
e 19 52
e 19 53
e 19 55
e 19 56
e 19 57
e 19 58
e 19 59
e 19 60
e 20 21
e 20 22
e 20 23
e 20 24
e 20 25
e 20 26
e 20 27
e 20 30
e 20 31
e 20 33
e 20 34
e 20 36
e 20 37
e 20 38
e 20 40
e 20 41
e 20 43
e 20 44
e 20 45
e 20 46
e 20 47
e 20 48
e 20 49
e 20 51
e 20 52
e 20 53
e 20 54
e 20 56
e 20 59
e 20 60
e 21 41
e 21 43
e 21 44
e 21 46
e 21 50
e 21 51
e 21 52
e 21 54
e 21 56
e 21 57
e 21 58
e 22 41
e 22 42
e 22 43
e 22 44
e 22 45
e 22 46
e 22 48
e 22 49
e 22 50
e 22 52
e 22 53
e 22 54
e 22 57
e 23 41
e 23 42
e 23 43
e 23 44
e 23 45
e 23 46
e 23 47
e 23 50
e 23 51
e 23 52
e 23 53
e 23 54
e 23 55
e 23 56
e 23 57
e 23 58
e 23 59
e 23 60
e 24 43
e 24 44
e 24 45
e 24 46
e 24 47
e 24 49
e 24 51
e 24 54
e 24 55
e 24 56
e 24 58
e 24 59
e 25 41
e 25 42
e 25 43
e 25 45
e 25 46
e 25 47
e 25 51
e 25 52
e 25 53
e 25 54
e 25 57
e 25 58
e 25 59
e 25 60
e 26 41
e 26 43
e 26 44
e 26 45
e 26 46
e 26 48
e 26 49
e 26 50
e 26 52
e 26 54
e 26 55
e 26 56
e 26 57
e 26 59
e 26 60
e 27 42
e 27 44
e 27 45
e 27 48
e 27 49
e 27 50
e 27 51
e 27 52
e 27 53
e 27 54
e 27 55
e 27 56
e 27 59
e 27 60
e 28 41
e 28 43
e 28 45
e 28 48
e 28 51
e 28 53
e 28 54
e 28 55
e 28 56
e 28 57
e 28 59
e 28 60
e 29 41
e 29 43
e 29 45
e 29 46
e 29 48
e 29 49
e 29 50
e 29 51
e 29 52
e 29 53
e 29 57
e 29 58
e 29 59
e 30 41
e 30 42
e 30 46
e 30 48
e 30 50
e 30 51
e 30 52
e 30 54
e 30 55
e 30 56
e 30 59
e 30 60
e 31 41
e 31 42
e 31 43
e 31 45
e 31 46
e 31 47
e 31 49
e 31 50
e 31 53
e 31 55
e 31 56
e 31 57
e 31 59
e 31 60
e 32 41
e 32 42
e 32 44
e 32 45
e 32 47
e 32 48
e 32 49
e 32 50
e 32 51
e 32 52
e 32 54
e 32 55
e 32 56
e 32 57
e 32 59
e 33 41
e 33 42
e 33 44
e 33 46
e 33 47
e 33 50
e 33 53
e 33 54
e 33 55
e 33 56
e 33 57
e 33 59
e 33 60
e 34 41
e 34 43
e 34 44
e 34 45
e 34 46
e 34 47
e 34 49
e 34 50
e 34 51
e 34 52
e 34 53
e 34 54
e 34 55
e 34 57
e 35 41
e 35 42
e 35 43
e 35 44
e 35 46
e 35 47
e 35 48
e 35 50
e 35 51
e 35 52
e 35 54
e 35 55
e 35 56
e 35 57
e 35 59
e 35 60
e 36 41
e 36 42
e 36 43
e 36 44
e 36 46
e 36 47
e 36 50
e 36 51
e 36 53
e 36 54
e 36 55
e 36 57
e 36 59
e 36 60
e 37 41
e 37 42
e 37 43
e 37 45
e 37 46
e 37 47
e 37 51
e 37 52
e 37 53
e 37 54
e 37 55
e 37 56
e 37 57
e 37 59
e 37 60
e 38 41
e 38 43
e 38 44
e 38 46
e 38 48
e 38 49
e 38 52
e 38 53
e 38 54
e 38 55
e 38 56
e 38 57
e 38 58
e 38 59
e 38 60
e 39 41
e 39 42
e 39 43
e 39 46
e 39 47
e 39 50
e 39 51
e 39 52
e 39 53
e 39 54
e 39 56
e 39 57
e 39 58
e 39 59
e 39 60
e 40 41
e 40 42
e 40 44
e 40 45
e 40 46
e 40 48
e 40 49
e 40 50
e 40 51
e 40 52
e 40 53
e 40 54
e 40 55
e 40 57
e 40 58
e 40 60
