c FILE: balanced_graphs/balanced_60_3_75_5.col
c
c DESCRIPTION: Random balanced graph, 60 nodes,
c              partitions 3
c              edge probability 0.75
c
c G(60,3,0.75) graph
c number of vertices : 60
c max number of edges: 1770
c edge probability   : 0.75
c
c           Graph Stats
c number of vertices  : 60
c nonisolated vertices: 60
c number of edges     : 886
c edge density        : 0.5006
c max degree          : 35
c avg degree          : 29.53
c min degree          : 22
c
p col 60 886
e 1 21
e 1 24
e 1 25
e 1 28
e 1 29
e 1 30
e 1 31
e 1 33
e 1 34
e 1 35
e 1 37
e 1 40
e 1 43
e 1 46
e 1 47
e 1 48
e 1 50
e 1 51
e 1 53
e 1 54
e 1 56
e 1 58
e 1 59
e 1 60
e 2 21
e 2 23
e 2 24
e 2 25
e 2 26
e 2 28
e 2 29
e 2 31
e 2 33
e 2 34
e 2 36
e 2 37
e 2 38
e 2 39
e 2 40
e 2 41
e 2 42
e 2 43
e 2 44
e 2 45
e 2 46
e 2 48
e 2 49
e 2 50
e 2 51
e 2 53
e 2 54
e 2 56
e 2 57
e 2 58
e 2 59
e 2 60
e 3 21
e 3 22
e 3 23
e 3 25
e 3 28
e 3 29
e 3 30
e 3 33
e 3 35
e 3 36
e 3 37
e 3 38
e 3 39
e 3 40
e 3 42
e 3 43
e 3 44
e 3 45
e 3 47
e 3 48
e 3 50
e 3 51
e 3 52
e 3 53
e 3 55
e 3 56
e 3 57
e 3 58
e 3 59
e 3 60
e 4 21
e 4 22
e 4 23
e 4 25
e 4 26
e 4 27
e 4 28
e 4 29
e 4 31
e 4 32
e 4 33
e 4 34
e 4 35
e 4 36
e 4 37
e 4 40
e 4 42
e 4 44
e 4 47
e 4 48
e 4 49
e 4 50
e 4 51
e 4 52
e 4 53
e 4 54
e 4 56
e 4 57
e 4 60
e 5 23
e 5 24
e 5 25
e 5 26
e 5 27
e 5 28
e 5 29
e 5 30
e 5 31
e 5 32
e 5 33
e 5 34
e 5 36
e 5 37
e 5 38
e 5 39
e 5 42
e 5 44
e 5 45
e 5 46
e 5 48
e 5 51
e 5 54
e 5 56
e 5 57
e 5 59
e 6 21
e 6 22
e 6 23
e 6 24
e 6 25
e 6 26
e 6 28
e 6 29
e 6 30
e 6 31
e 6 32
e 6 33
e 6 34
e 6 35
e 6 36
e 6 37
e 6 38
e 6 39
e 6 40
e 6 41
e 6 42
e 6 44
e 6 46
e 6 47
e 6 48
e 6 53
e 6 54
e 6 55
e 6 56
e 6 57
e 6 58
e 6 59
e 6 60
e 7 21
e 7 24
e 7 26
e 7 28
e 7 29
e 7 30
e 7 31
e 7 32
e 7 34
e 7 35
e 7 36
e 7 37
e 7 38
e 7 39
e 7 40
e 7 41
e 7 42
e 7 43
e 7 44
e 7 45
e 7 46
e 7 47
e 7 49
e 7 50
e 7 52
e 7 54
e 7 55
e 7 56
e 7 57
e 7 58
e 7 59
e 8 22
e 8 23
e 8 24
e 8 25
e 8 26
e 8 27
e 8 28
e 8 29
e 8 30
e 8 31
e 8 32
e 8 33
e 8 34
e 8 35
e 8 37
e 8 38
e 8 39
e 8 41
e 8 42
e 8 43
e 8 44
e 8 45
e 8 46
e 8 47
e 8 48
e 8 49
e 8 50
e 8 52
e 8 54
e 8 56
e 8 57
e 8 58
e 9 21
e 9 22
e 9 23
e 9 24
e 9 25
e 9 27
e 9 28
e 9 30
e 9 31
e 9 32
e 9 34
e 9 35
e 9 36
e 9 37
e 9 38
e 9 39
e 9 41
e 9 43
e 9 44
e 9 45
e 9 46
e 9 48
e 9 49
e 9 51
e 9 52
e 9 54
e 9 56
e 9 59
e 9 60
e 10 21
e 10 22
e 10 24
e 10 25
e 10 26
e 10 27
e 10 29
e 10 30
e 10 31
e 10 32
e 10 33
e 10 34
e 10 36
e 10 37
e 10 38
e 10 39
e 10 41
e 10 42
e 10 43
e 10 45
e 10 46
e 10 47
e 10 49
e 10 50
e 10 54
e 10 55
e 10 56
e 11 21
e 11 22
e 11 23
e 11 24
e 11 26
e 11 27
e 11 28
e 11 31
e 11 32
e 11 33
e 11 35
e 11 36
e 11 38
e 11 39
e 11 40
e 11 41
e 11 42
e 11 43
e 11 44
e 11 45
e 11 46
e 11 48
e 11 49
e 11 50
e 11 52
e 11 53
e 11 54
e 11 55
e 11 56
e 11 57
e 11 58
e 11 59
e 11 60
e 12 22
e 12 23
e 12 25
e 12 27
e 12 29
e 12 30
e 12 32
e 12 35
e 12 36
e 12 37
e 12 39
e 12 40
e 12 41
e 12 42
e 12 43
e 12 44
e 12 45
e 12 47
e 12 48
e 12 50
e 12 51
e 12 52
e 12 53
e 12 54
e 12 55
e 12 58
e 12 60
e 13 21
e 13 22
e 13 23
e 13 24
e 13 25
e 13 27
e 13 28
e 13 29
e 13 30
e 13 32
e 13 34
e 13 35
e 13 36
e 13 37
e 13 38
e 13 39
e 13 40
e 13 42
e 13 43
e 13 44
e 13 46
e 13 47
e 13 48
e 13 49
e 13 50
e 13 53
e 13 56
e 13 57
e 13 58
e 13 59
e 13 60
e 14 22
e 14 23
e 14 24
e 14 26
e 14 27
e 14 28
e 14 30
e 14 32
e 14 35
e 14 36
e 14 38
e 14 39
e 14 40
e 14 41
e 14 42
e 14 43
e 14 44
e 14 45
e 14 46
e 14 48
e 14 49
e 14 50
e 14 51
e 14 54
e 14 56
e 14 57
e 14 58
e 14 59
e 15 21
e 15 22
e 15 23
e 15 24
e 15 25
e 15 26
e 15 27
e 15 28
e 15 29
e 15 33
e 15 34
e 15 35
e 15 36
e 15 37
e 15 38
e 15 39
e 15 41
e 15 42
e 15 43
e 15 45
e 15 46
e 15 50
e 15 51
e 15 52
e 15 53
e 15 57
e 15 58
e 15 59
e 16 21
e 16 24
e 16 25
e 16 26
e 16 27
e 16 28
e 16 30
e 16 31
e 16 32
e 16 34
e 16 35
e 16 36
e 16 37
e 16 38
e 16 39
e 16 40
e 16 41
e 16 42
e 16 44
e 16 45
e 16 46
e 16 48
e 16 49
e 16 50
e 16 51
e 16 52
e 16 53
e 16 55
e 16 56
e 16 57
e 16 59
e 16 60
e 17 21
e 17 22
e 17 23
e 17 25
e 17 26
e 17 27
e 17 29
e 17 31
e 17 32
e 17 35
e 17 36
e 17 37
e 17 38
e 17 39
e 17 40
e 17 42
e 17 44
e 17 45
e 17 47
e 17 48
e 17 49
e 17 50
e 17 51
e 17 52
e 17 56
e 17 58
e 17 59
e 18 21
e 18 22
e 18 23
e 18 25
e 18 26
e 18 27
e 18 28
e 18 29
e 18 30
e 18 31
e 18 32
e 18 33
e 18 34
e 18 36
e 18 38
e 18 39
e 18 41
e 18 42
e 18 43
e 18 46
e 18 47
e 18 48
e 18 49
e 18 51
e 18 52
e 18 53
e 18 54
e 18 55
e 18 57
e 18 58
e 18 59
e 18 60
e 19 23
e 19 24
e 19 25
e 19 27
e 19 29
e 19 30
e 19 31
e 19 32
e 19 33
e 19 34
e 19 35
e 19 37
e 19 38
e 19 40
e 19 41
e 19 44
e 19 46
e 19 50
e 19 52
e 19 53
e 19 55
e 19 56
e 19 57
e 19 58
e 19 59
e 20 21
e 20 22
e 20 23
e 20 24
e 20 27
e 20 28
e 20 29
e 20 30
e 20 32
e 20 33
e 20 34
e 20 35
e 20 36
e 20 37
e 20 38
e 20 40
e 20 41
e 20 43
e 20 44
e 20 45
e 20 46
e 20 47
e 20 48
e 20 49
e 20 50
e 20 51
e 20 52
e 20 54
e 20 55
e 20 56
e 20 57
e 20 58
e 21 43
e 21 44
e 21 45
e 21 46
e 21 47
e 21 50
e 21 51
e 21 53
e 21 54
e 21 55
e 21 56
e 21 58
e 21 60
e 22 41
e 22 42
e 22 43
e 22 44
e 22 46
e 22 49
e 22 50
e 22 51
e 22 52
e 22 53
e 22 54
e 22 55
e 22 56
e 22 57
e 22 58
e 22 59
e 22 60
e 23 41
e 23 43
e 23 45
e 23 46
e 23 47
e 23 48
e 23 49
e 23 50
e 23 51
e 23 52
e 23 54
e 23 57
e 23 58
e 23 59
e 24 41
e 24 42
e 24 43
e 24 44
e 24 45
e 24 46
e 24 47
e 24 48
e 24 50
e 24 51
e 24 52
e 24 53
e 24 54
e 24 55
e 24 56
e 24 58
e 24 59
e 24 60
e 25 41
e 25 42
e 25 43
e 25 44
e 25 46
e 25 47
e 25 48
e 25 49
e 25 50
e 25 51
e 25 52
e 25 54
e 25 56
e 25 57
e 25 58
e 25 59
e 26 43
e 26 44
e 26 45
e 26 46
e 26 47
e 26 48
e 26 49
e 26 50
e 26 52
e 26 54
e 26 55
e 26 56
e 26 58
e 26 60
e 27 41
e 27 43
e 27 44
e 27 46
e 27 47
e 27 48
e 27 49
e 27 50
e 27 51
e 27 52
e 27 53
e 27 55
e 27 57
e 27 58
e 27 59
e 27 60
e 28 41
e 28 42
e 28 43
e 28 44
e 28 45
e 28 46
e 28 48
e 28 52
e 28 54
e 28 55
e 28 56
e 28 57
e 28 58
e 28 59
e 28 60
e 29 41
e 29 43
e 29 44
e 29 45
e 29 46
e 29 48
e 29 49
e 29 50
e 29 52
e 29 53
e 29 54
e 29 55
e 29 57
e 29 58
e 29 59
e 29 60
e 30 42
e 30 44
e 30 46
e 30 49
e 30 50
e 30 52
e 30 53
e 30 54
e 30 55
e 30 57
e 30 58
e 30 59
e 30 60
e 31 41
e 31 42
e 31 43
e 31 44
e 31 45
e 31 46
e 31 47
e 31 48
e 31 50
e 31 53
e 31 54
e 31 55
e 31 57
e 31 58
e 32 41
e 32 42
e 32 43
e 32 44
e 32 45
e 32 46
e 32 47
e 32 52
e 32 53
e 32 56
e 32 57
e 32 58
e 33 42
e 33 47
e 33 48
e 33 49
e 33 50
e 33 51
e 33 53
e 33 54
e 33 56
e 33 57
e 33 58
e 33 59
e 33 60
e 34 41
e 34 42
e 34 43
e 34 44
e 34 45
e 34 46
e 34 47
e 34 48
e 34 49
e 34 50
e 34 51
e 34 53
e 34 58
e 34 59
e 34 60
e 35 41
e 35 42
e 35 43
e 35 44
e 35 45
e 35 46
e 35 48
e 35 49
e 35 50
e 35 51
e 35 53
e 35 54
e 35 55
e 35 56
e 35 57
e 35 59
e 35 60
e 36 41
e 36 43
e 36 44
e 36 45
e 36 46
e 36 47
e 36 48
e 36 49
e 36 51
e 36 52
e 36 53
e 36 54
e 36 55
e 36 56
e 36 57
e 36 58
e 36 59
e 36 60
e 37 41
e 37 42
e 37 43
e 37 44
e 37 46
e 37 47
e 37 50
e 37 52
e 37 55
e 37 56
e 37 58
e 37 59
e 37 60
e 38 41
e 38 42
e 38 43
e 38 45
e 38 48
e 38 49
e 38 51
e 38 52
e 38 53
e 38 54
e 38 58
e 38 59
e 38 60
e 39 41
e 39 43
e 39 46
e 39 47
e 39 48
e 39 49
e 39 50
e 39 51
e 39 52
e 39 54
e 39 56
e 39 57
e 39 58
e 39 60
e 40 41
e 40 42
e 40 43
e 40 44
e 40 46
e 40 47
e 40 48
e 40 49
e 40 50
e 40 51
e 40 52
e 40 53
e 40 54
e 40 56
e 40 57
e 40 58
e 40 60
