c FILE: balanced_graphs/balanced_100_5_50_2.col
c
c DESCRIPTION: Random balanced graph, 100 nodes,
c              partitions 5
c              edge probability 0.5
c
c G(100,5,0.5) graph
c number of vertices : 100
c max number of edges: 4950
c edge probability   : 0.5
c
c           Graph Stats
c number of vertices  : 100
c nonisolated vertices: 100
c number of edges     : 2021
c edge density        : 0.4083
c max degree          : 54
c avg degree          : 40.42
c min degree          : 28
c
p col 100 2021
e 1 22
e 1 26
e 1 27
e 1 28
e 1 29
e 1 31
e 1 33
e 1 34
e 1 35
e 1 36
e 1 38
e 1 39
e 1 43
e 1 45
e 1 49
e 1 52
e 1 53
e 1 55
e 1 56
e 1 57
e 1 59
e 1 62
e 1 65
e 1 68
e 1 70
e 1 71
e 1 72
e 1 76
e 1 77
e 1 82
e 1 83
e 1 85
e 1 86
e 1 87
e 1 89
e 1 90
e 1 91
e 1 97
e 1 98
e 1 99
e 2 23
e 2 24
e 2 25
e 2 28
e 2 31
e 2 32
e 2 36
e 2 37
e 2 38
e 2 40
e 2 41
e 2 42
e 2 43
e 2 44
e 2 45
e 2 46
e 2 47
e 2 50
e 2 51
e 2 52
e 2 55
e 2 57
e 2 59
e 2 60
e 2 62
e 2 65
e 2 66
e 2 67
e 2 68
e 2 71
e 2 73
e 2 75
e 2 77
e 2 80
e 2 82
e 2 83
e 2 84
e 2 85
e 2 87
e 2 88
e 2 89
e 2 93
e 2 94
e 2 97
e 2 98
e 2 99
e 2 100
e 3 23
e 3 24
e 3 27
e 3 30
e 3 31
e 3 33
e 3 36
e 3 38
e 3 41
e 3 42
e 3 44
e 3 45
e 3 46
e 3 47
e 3 49
e 3 51
e 3 52
e 3 53
e 3 58
e 3 59
e 3 60
e 3 63
e 3 65
e 3 66
e 3 67
e 3 68
e 3 70
e 3 71
e 3 73
e 3 74
e 3 75
e 3 76
e 3 78
e 3 79
e 3 80
e 3 82
e 3 83
e 3 86
e 3 87
e 3 88
e 3 89
e 3 90
e 3 91
e 3 93
e 3 95
e 3 96
e 3 99
e 3 100
e 4 21
e 4 23
e 4 24
e 4 25
e 4 28
e 4 29
e 4 38
e 4 42
e 4 43
e 4 44
e 4 52
e 4 53
e 4 57
e 4 58
e 4 60
e 4 61
e 4 62
e 4 65
e 4 66
e 4 71
e 4 73
e 4 74
e 4 76
e 4 78
e 4 82
e 4 83
e 4 84
e 4 87
e 4 89
e 4 90
e 4 91
e 4 92
e 4 95
e 4 96
e 4 98
e 4 99
e 5 21
e 5 22
e 5 25
e 5 28
e 5 31
e 5 33
e 5 34
e 5 42
e 5 44
e 5 46
e 5 47
e 5 50
e 5 52
e 5 53
e 5 57
e 5 58
e 5 59
e 5 61
e 5 62
e 5 63
e 5 65
e 5 67
e 5 68
e 5 70
e 5 72
e 5 73
e 5 75
e 5 77
e 5 78
e 5 79
e 5 85
e 5 86
e 5 87
e 5 95
e 5 96
e 5 98
e 6 21
e 6 22
e 6 27
e 6 30
e 6 33
e 6 35
e 6 36
e 6 37
e 6 38
e 6 42
e 6 43
e 6 46
e 6 47
e 6 49
e 6 50
e 6 52
e 6 55
e 6 57
e 6 59
e 6 62
e 6 63
e 6 64
e 6 65
e 6 68
e 6 72
e 6 75
e 6 77
e 6 79
e 6 82
e 6 86
e 6 87
e 6 90
e 6 92
e 6 94
e 6 95
e 6 97
e 6 98
e 6 99
e 6 100
e 7 21
e 7 24
e 7 26
e 7 27
e 7 28
e 7 29
e 7 33
e 7 42
e 7 45
e 7 46
e 7 49
e 7 53
e 7 54
e 7 55
e 7 57
e 7 58
e 7 60
e 7 61
e 7 62
e 7 63
e 7 64
e 7 65
e 7 66
e 7 67
e 7 72
e 7 73
e 7 74
e 7 75
e 7 76
e 7 78
e 7 79
e 7 80
e 7 81
e 7 82
e 7 85
e 7 87
e 7 89
e 7 90
e 7 91
e 7 93
e 7 94
e 7 95
e 7 96
e 7 97
e 7 98
e 7 100
e 8 21
e 8 25
e 8 26
e 8 27
e 8 28
e 8 29
e 8 30
e 8 31
e 8 32
e 8 33
e 8 38
e 8 40
e 8 41
e 8 42
e 8 43
e 8 45
e 8 50
e 8 52
e 8 53
e 8 54
e 8 57
e 8 66
e 8 67
e 8 68
e 8 69
e 8 71
e 8 76
e 8 83
e 8 84
e 8 85
e 8 86
e 8 89
e 8 90
e 8 92
e 8 95
e 8 97
e 8 99
e 8 100
e 9 21
e 9 22
e 9 23
e 9 27
e 9 30
e 9 31
e 9 32
e 9 34
e 9 35
e 9 36
e 9 39
e 9 40
e 9 42
e 9 43
e 9 45
e 9 46
e 9 49
e 9 50
e 9 53
e 9 58
e 9 61
e 9 62
e 9 63
e 9 65
e 9 68
e 9 70
e 9 74
e 9 76
e 9 77
e 9 79
e 9 80
e 9 81
e 9 82
e 9 85
e 9 87
e 9 88
e 9 89
e 9 90
e 9 91
e 9 92
e 9 93
e 9 94
e 9 98
e 10 21
e 10 22
e 10 23
e 10 25
e 10 26
e 10 27
e 10 28
e 10 29
e 10 30
e 10 33
e 10 34
e 10 37
e 10 39
e 10 40
e 10 42
e 10 43
e 10 47
e 10 48
e 10 49
e 10 50
e 10 53
e 10 58
e 10 61
e 10 64
e 10 65
e 10 70
e 10 71
e 10 72
e 10 74
e 10 75
e 10 77
e 10 79
e 10 80
e 10 81
e 10 82
e 10 83
e 10 84
e 10 85
e 10 88
e 10 93
e 10 94
e 10 95
e 10 96
e 10 97
e 10 98
e 11 22
e 11 24
e 11 25
e 11 26
e 11 31
e 11 33
e 11 35
e 11 37
e 11 38
e 11 39
e 11 40
e 11 41
e 11 42
e 11 43
e 11 45
e 11 46
e 11 57
e 11 59
e 11 60
e 11 62
e 11 64
e 11 68
e 11 69
e 11 70
e 11 74
e 11 75
e 11 76
e 11 77
e 11 79
e 11 80
e 11 82
e 11 83
e 11 85
e 11 87
e 11 88
e 11 89
e 11 91
e 11 92
e 11 95
e 11 97
e 11 98
e 11 99
e 11 100
e 12 21
e 12 22
e 12 25
e 12 26
e 12 32
e 12 35
e 12 36
e 12 42
e 12 43
e 12 46
e 12 47
e 12 48
e 12 49
e 12 51
e 12 52
e 12 55
e 12 56
e 12 57
e 12 59
e 12 60
e 12 65
e 12 66
e 12 69
e 12 72
e 12 73
e 12 76
e 12 77
e 12 81
e 12 85
e 12 87
e 12 89
e 12 91
e 12 95
e 12 96
e 12 99
e 12 100
e 13 22
e 13 23
e 13 24
e 13 25
e 13 29
e 13 30
e 13 32
e 13 33
e 13 34
e 13 35
e 13 37
e 13 41
e 13 45
e 13 46
e 13 47
e 13 48
e 13 52
e 13 54
e 13 56
e 13 60
e 13 61
e 13 64
e 13 65
e 13 66
e 13 68
e 13 69
e 13 71
e 13 72
e 13 76
e 13 79
e 13 80
e 13 83
e 13 84
e 13 86
e 13 87
e 13 88
e 13 90
e 13 95
e 13 96
e 13 97
e 13 98
e 14 24
e 14 25
e 14 27
e 14 28
e 14 31
e 14 32
e 14 36
e 14 39
e 14 41
e 14 42
e 14 44
e 14 45
e 14 46
e 14 47
e 14 50
e 14 54
e 14 56
e 14 57
e 14 58
e 14 61
e 14 62
e 14 63
e 14 65
e 14 66
e 14 67
e 14 68
e 14 69
e 14 70
e 14 76
e 14 77
e 14 80
e 14 85
e 14 86
e 14 88
e 14 89
e 14 93
e 14 94
e 14 95
e 14 96
e 14 97
e 14 98
e 14 100
e 15 22
e 15 26
e 15 27
e 15 29
e 15 33
e 15 36
e 15 37
e 15 40
e 15 42
e 15 43
e 15 46
e 15 49
e 15 50
e 15 52
e 15 54
e 15 55
e 15 58
e 15 59
e 15 61
e 15 63
e 15 64
e 15 66
e 15 67
e 15 68
e 15 70
e 15 71
e 15 76
e 15 77
e 15 80
e 15 81
e 15 84
e 15 85
e 15 86
e 15 87
e 15 88
e 15 91
e 15 93
e 15 98
e 15 99
e 16 21
e 16 22
e 16 25
e 16 26
e 16 27
e 16 28
e 16 32
e 16 35
e 16 37
e 16 42
e 16 43
e 16 45
e 16 48
e 16 49
e 16 50
e 16 52
e 16 57
e 16 59
e 16 60
e 16 61
e 16 62
e 16 63
e 16 64
e 16 66
e 16 67
e 16 69
e 16 72
e 16 73
e 16 74
e 16 78
e 16 79
e 16 81
e 16 82
e 16 89
e 16 92
e 16 93
e 16 95
e 16 97
e 16 98
e 17 22
e 17 23
e 17 24
e 17 25
e 17 27
e 17 29
e 17 32
e 17 33
e 17 34
e 17 36
e 17 37
e 17 38
e 17 39
e 17 41
e 17 42
e 17 44
e 17 45
e 17 47
e 17 48
e 17 51
e 17 52
e 17 56
e 17 57
e 17 58
e 17 59
e 17 61
e 17 68
e 17 69
e 17 73
e 17 76
e 17 77
e 17 78
e 17 79
e 17 83
e 17 85
e 17 86
e 17 87
e 17 88
e 17 89
e 17 92
e 17 93
e 17 94
e 17 96
e 18 21
e 18 23
e 18 24
e 18 25
e 18 26
e 18 30
e 18 33
e 18 34
e 18 37
e 18 41
e 18 47
e 18 52
e 18 53
e 18 54
e 18 64
e 18 65
e 18 72
e 18 74
e 18 79
e 18 80
e 18 82
e 18 84
e 18 85
e 18 86
e 18 87
e 18 89
e 18 90
e 18 91
e 18 93
e 18 95
e 18 96
e 18 97
e 18 99
e 19 24
e 19 27
e 19 28
e 19 29
e 19 34
e 19 39
e 19 40
e 19 41
e 19 46
e 19 47
e 19 53
e 19 55
e 19 56
e 19 58
e 19 60
e 19 61
e 19 66
e 19 69
e 19 72
e 19 77
e 19 84
e 19 87
e 19 90
e 19 91
e 19 92
e 19 94
e 19 95
e 19 97
e 20 21
e 20 23
e 20 24
e 20 30
e 20 31
e 20 32
e 20 34
e 20 35
e 20 36
e 20 37
e 20 41
e 20 43
e 20 45
e 20 48
e 20 50
e 20 51
e 20 52
e 20 55
e 20 58
e 20 61
e 20 64
e 20 65
e 20 67
e 20 76
e 20 77
e 20 80
e 20 83
e 20 84
e 20 85
e 20 86
e 20 89
e 20 91
e 20 93
e 20 95
e 20 96
e 20 100
e 21 41
e 21 44
e 21 45
e 21 47
e 21 48
e 21 49
e 21 51
e 21 52
e 21 54
e 21 56
e 21 58
e 21 59
e 21 60
e 21 61
e 21 63
e 21 69
e 21 71
e 21 75
e 21 78
e 21 81
e 21 82
e 21 84
e 21 85
e 21 86
e 21 91
e 21 94
e 21 95
e 21 96
e 21 97
e 21 99
e 22 41
e 22 42
e 22 46
e 22 48
e 22 51
e 22 53
e 22 55
e 22 56
e 22 59
e 22 61
e 22 62
e 22 66
e 22 68
e 22 70
e 22 76
e 22 79
e 22 82
e 22 83
e 22 86
e 22 87
e 22 88
e 22 92
e 22 95
e 22 96
e 22 97
e 23 41
e 23 45
e 23 46
e 23 47
e 23 48
e 23 51
e 23 52
e 23 53
e 23 54
e 23 55
e 23 56
e 23 57
e 23 58
e 23 62
e 23 63
e 23 67
e 23 68
e 23 69
e 23 71
e 23 72
e 23 74
e 23 76
e 23 81
e 23 87
e 23 88
e 23 89
e 23 90
e 23 92
e 23 96
e 23 98
e 23 100
e 24 41
e 24 45
e 24 50
e 24 52
e 24 54
e 24 60
e 24 61
e 24 62
e 24 65
e 24 68
e 24 72
e 24 75
e 24 76
e 24 77
e 24 78
e 24 79
e 24 83
e 24 85
e 24 87
e 24 88
e 24 90
e 24 92
e 24 94
e 24 96
e 24 98
e 25 41
e 25 42
e 25 43
e 25 45
e 25 48
e 25 49
e 25 51
e 25 56
e 25 59
e 25 60
e 25 62
e 25 64
e 25 66
e 25 71
e 25 72
e 25 74
e 25 75
e 25 76
e 25 77
e 25 80
e 25 81
e 25 82
e 25 84
e 25 86
e 25 88
e 25 90
e 25 94
e 25 95
e 25 96
e 25 97
e 25 99
e 25 100
e 26 41
e 26 43
e 26 44
e 26 45
e 26 49
e 26 52
e 26 53
e 26 57
e 26 60
e 26 62
e 26 63
e 26 64
e 26 66
e 26 70
e 26 71
e 26 72
e 26 74
e 26 75
e 26 76
e 26 77
e 26 81
e 26 83
e 26 85
e 26 86
e 26 90
e 26 91
e 26 93
e 26 94
e 26 96
e 26 97
e 26 98
e 27 41
e 27 47
e 27 48
e 27 50
e 27 51
e 27 53
e 27 54
e 27 55
e 27 56
e 27 57
e 27 58
e 27 59
e 27 62
e 27 64
e 27 68
e 27 70
e 27 71
e 27 73
e 27 75
e 27 77
e 27 79
e 27 81
e 27 82
e 27 83
e 27 89
e 27 90
e 27 91
e 27 92
e 27 93
e 27 95
e 27 98
e 28 42
e 28 47
e 28 49
e 28 50
e 28 51
e 28 52
e 28 55
e 28 57
e 28 58
e 28 59
e 28 61
e 28 62
e 28 64
e 28 66
e 28 68
e 28 71
e 28 72
e 28 74
e 28 75
e 28 76
e 28 77
e 28 79
e 28 81
e 28 82
e 28 86
e 28 87
e 28 88
e 28 89
e 28 92
e 28 95
e 28 97
e 29 44
e 29 48
e 29 50
e 29 51
e 29 53
e 29 54
e 29 55
e 29 57
e 29 58
e 29 60
e 29 62
e 29 63
e 29 64
e 29 65
e 29 68
e 29 70
e 29 71
e 29 74
e 29 75
e 29 76
e 29 77
e 29 78
e 29 84
e 29 86
e 29 89
e 29 91
e 29 92
e 29 95
e 29 99
e 29 100
e 30 41
e 30 42
e 30 45
e 30 47
e 30 49
e 30 50
e 30 51
e 30 57
e 30 58
e 30 59
e 30 60
e 30 62
e 30 63
e 30 64
e 30 67
e 30 69
e 30 71
e 30 73
e 30 76
e 30 78
e 30 79
e 30 81
e 30 85
e 30 86
e 30 87
e 30 89
e 30 92
e 30 93
e 30 98
e 31 42
e 31 43
e 31 48
e 31 50
e 31 51
e 31 52
e 31 53
e 31 54
e 31 56
e 31 59
e 31 62
e 31 63
e 31 64
e 31 65
e 31 72
e 31 73
e 31 75
e 31 76
e 31 77
e 31 80
e 31 81
e 31 84
e 31 85
e 31 86
e 31 87
e 31 90
e 31 94
e 31 95
e 31 97
e 31 99
e 31 100
e 32 41
e 32 42
e 32 43
e 32 47
e 32 49
e 32 50
e 32 53
e 32 55
e 32 56
e 32 58
e 32 59
e 32 60
e 32 62
e 32 63
e 32 64
e 32 65
e 32 68
e 32 69
e 32 70
e 32 71
e 32 72
e 32 75
e 32 80
e 32 81
e 32 82
e 32 83
e 32 88
e 32 91
e 32 94
e 32 95
e 32 100
e 33 42
e 33 43
e 33 49
e 33 50
e 33 51
e 33 52
e 33 53
e 33 58
e 33 59
e 33 60
e 33 62
e 33 65
e 33 66
e 33 67
e 33 68
e 33 70
e 33 71
e 33 73
e 33 75
e 33 76
e 33 79
e 33 80
e 33 81
e 33 82
e 33 83
e 33 85
e 33 87
e 33 88
e 33 89
e 33 90
e 33 91
e 33 93
e 33 100
e 34 42
e 34 43
e 34 46
e 34 48
e 34 49
e 34 51
e 34 54
e 34 55
e 34 56
e 34 57
e 34 62
e 34 63
e 34 65
e 34 67
e 34 68
e 34 69
e 34 70
e 34 71
e 34 72
e 34 74
e 34 78
e 34 80
e 34 81
e 34 82
e 34 84
e 34 85
e 34 87
e 34 89
e 34 90
e 34 91
e 34 93
e 34 94
e 34 95
e 34 96
e 34 99
e 35 41
e 35 43
e 35 47
e 35 49
e 35 50
e 35 51
e 35 52
e 35 55
e 35 56
e 35 58
e 35 59
e 35 62
e 35 63
e 35 65
e 35 72
e 35 73
e 35 74
e 35 76
e 35 78
e 35 80
e 35 88
e 35 90
e 35 92
e 35 93
e 35 94
e 35 95
e 35 96
e 35 97
e 35 99
e 35 100
e 36 41
e 36 42
e 36 43
e 36 46
e 36 47
e 36 48
e 36 49
e 36 50
e 36 51
e 36 52
e 36 56
e 36 58
e 36 59
e 36 60
e 36 62
e 36 63
e 36 64
e 36 66
e 36 68
e 36 70
e 36 71
e 36 74
e 36 75
e 36 76
e 36 77
e 36 78
e 36 79
e 36 80
e 36 82
e 36 84
e 36 85
e 36 87
e 36 88
e 36 90
e 36 94
e 36 95
e 36 97
e 36 98
e 36 99
e 37 41
e 37 43
e 37 44
e 37 46
e 37 47
e 37 48
e 37 49
e 37 51
e 37 52
e 37 54
e 37 56
e 37 59
e 37 61
e 37 63
e 37 66
e 37 67
e 37 70
e 37 72
e 37 73
e 37 77
e 37 78
e 37 79
e 37 81
e 37 83
e 37 85
e 37 86
e 37 89
e 37 90
e 37 91
e 37 92
e 37 95
e 37 98
e 38 41
e 38 42
e 38 45
e 38 50
e 38 54
e 38 55
e 38 56
e 38 57
e 38 59
e 38 61
e 38 62
e 38 63
e 38 66
e 38 67
e 38 71
e 38 75
e 38 76
e 38 77
e 38 79
e 38 80
e 38 84
e 38 87
e 38 88
e 38 89
e 38 94
e 38 95
e 38 97
e 38 100
e 39 41
e 39 42
e 39 43
e 39 45
e 39 47
e 39 51
e 39 53
e 39 57
e 39 59
e 39 60
e 39 63
e 39 65
e 39 69
e 39 70
e 39 72
e 39 78
e 39 79
e 39 81
e 39 83
e 39 85
e 39 87
e 39 88
e 39 90
e 39 92
e 39 94
e 40 42
e 40 45
e 40 46
e 40 47
e 40 50
e 40 51
e 40 54
e 40 55
e 40 58
e 40 59
e 40 63
e 40 65
e 40 71
e 40 73
e 40 74
e 40 76
e 40 77
e 40 78
e 40 80
e 40 83
e 40 86
e 40 89
e 40 90
e 40 92
e 40 93
e 40 94
e 40 95
e 40 96
e 40 99
e 41 75
e 41 76
e 41 79
e 41 82
e 41 83
e 41 84
e 41 89
e 41 96
e 41 97
e 41 98
e 41 100
e 42 62
e 42 64
e 42 65
e 42 67
e 42 70
e 42 71
e 42 74
e 42 77
e 42 79
e 42 82
e 42 84
e 42 87
e 42 89
e 42 92
e 42 95
e 42 96
e 42 98
e 42 100
e 43 62
e 43 63
e 43 67
e 43 68
e 43 69
e 43 70
e 43 71
e 43 75
e 43 76
e 43 78
e 43 80
e 43 81
e 43 82
e 43 84
e 43 85
e 43 87
e 43 89
e 43 90
e 43 91
e 43 92
e 43 93
e 43 95
e 44 65
e 44 66
e 44 68
e 44 69
e 44 70
e 44 71
e 44 72
e 44 74
e 44 76
e 44 78
e 44 81
e 44 83
e 44 90
e 44 92
e 44 93
e 44 94
e 44 96
e 44 98
e 44 99
e 44 100
e 45 62
e 45 64
e 45 65
e 45 67
e 45 68
e 45 75
e 45 76
e 45 77
e 45 78
e 45 79
e 45 82
e 45 83
e 45 85
e 45 90
e 45 92
e 45 94
e 45 96
e 45 97
e 45 100
e 46 62
e 46 63
e 46 65
e 46 66
e 46 67
e 46 68
e 46 69
e 46 70
e 46 72
e 46 76
e 46 79
e 46 80
e 46 83
e 46 84
e 46 85
e 46 86
e 46 88
e 46 92
e 46 93
e 46 94
e 46 96
e 46 98
e 47 66
e 47 67
e 47 68
e 47 69
e 47 70
e 47 71
e 47 74
e 47 75
e 47 77
e 47 78
e 47 83
e 47 84
e 47 85
e 47 89
e 47 91
e 47 93
e 47 94
e 47 95
e 47 96
e 47 97
e 48 62
e 48 63
e 48 65
e 48 66
e 48 70
e 48 71
e 48 73
e 48 76
e 48 77
e 48 80
e 48 84
e 48 85
e 48 86
e 48 93
e 48 94
e 48 95
e 48 99
e 49 61
e 49 63
e 49 64
e 49 66
e 49 67
e 49 68
e 49 74
e 49 75
e 49 76
e 49 79
e 49 81
e 49 83
e 49 87
e 49 88
e 49 92
e 49 93
e 49 95
e 49 96
e 49 97
e 50 61
e 50 63
e 50 64
e 50 66
e 50 67
e 50 68
e 50 70
e 50 71
e 50 72
e 50 73
e 50 74
e 50 76
e 50 78
e 50 81
e 50 82
e 50 83
e 50 84
e 50 87
e 50 89
e 50 91
e 50 92
e 50 93
e 50 94
e 50 95
e 50 96
e 50 98
e 50 100
e 51 61
e 51 62
e 51 63
e 51 64
e 51 69
e 51 70
e 51 74
e 51 75
e 51 79
e 51 81
e 51 85
e 51 88
e 51 90
e 51 92
e 51 94
e 51 95
e 51 96
e 51 97
e 51 98
e 51 99
e 52 63
e 52 64
e 52 65
e 52 67
e 52 69
e 52 70
e 52 73
e 52 75
e 52 84
e 52 85
e 52 87
e 52 89
e 52 90
e 52 91
e 52 93
e 52 95
e 52 96
e 52 97
e 52 98
e 52 99
e 52 100
e 53 62
e 53 64
e 53 65
e 53 66
e 53 67
e 53 69
e 53 71
e 53 73
e 53 74
e 53 75
e 53 77
e 53 79
e 53 80
e 53 81
e 53 83
e 53 84
e 53 86
e 53 90
e 53 92
e 53 93
e 53 94
e 53 95
e 53 96
e 53 99
e 54 62
e 54 65
e 54 67
e 54 68
e 54 71
e 54 74
e 54 76
e 54 77
e 54 78
e 54 82
e 54 84
e 54 85
e 54 86
e 54 90
e 54 93
e 54 94
e 54 98
e 54 100
e 55 61
e 55 62
e 55 66
e 55 68
e 55 71
e 55 74
e 55 75
e 55 76
e 55 77
e 55 78
e 55 79
e 55 85
e 55 87
e 55 88
e 55 89
e 55 90
e 55 93
e 55 94
e 55 95
e 55 97
e 55 98
e 55 100
e 56 62
e 56 66
e 56 70
e 56 71
e 56 74
e 56 77
e 56 79
e 56 82
e 56 83
e 56 84
e 56 86
e 56 87
e 56 89
e 56 90
e 56 91
e 56 93
e 56 97
e 57 62
e 57 63
e 57 68
e 57 71
e 57 76
e 57 77
e 57 81
e 57 84
e 57 88
e 57 89
e 57 90
e 57 91
e 57 92
e 57 94
e 57 95
e 57 99
e 57 100
e 58 61
e 58 63
e 58 64
e 58 66
e 58 67
e 58 69
e 58 70
e 58 74
e 58 75
e 58 76
e 58 77
e 58 78
e 58 79
e 58 80
e 58 81
e 58 84
e 58 85
e 58 86
e 58 88
e 58 94
e 58 98
e 59 61
e 59 62
e 59 64
e 59 70
e 59 72
e 59 74
e 59 75
e 59 76
e 59 77
e 59 83
e 59 86
e 59 89
e 59 91
e 59 92
e 59 93
e 59 96
e 59 98
e 59 100
e 60 61
e 60 63
e 60 67
e 60 70
e 60 71
e 60 72
e 60 73
e 60 74
e 60 75
e 60 79
e 60 81
e 60 82
e 60 83
e 60 84
e 60 86
e 60 90
e 60 92
e 60 93
e 60 95
e 60 98
e 60 99
e 60 100
e 61 82
e 61 85
e 61 86
e 61 87
e 61 89
e 61 92
e 61 96
e 62 82
e 62 83
e 62 87
e 62 88
e 62 89
e 62 90
e 62 91
e 62 92
e 62 93
e 62 94
e 62 95
e 62 96
e 62 97
e 62 98
e 62 100
e 63 84
e 63 86
e 63 88
e 63 89
e 63 90
e 63 91
e 63 92
e 63 93
e 63 95
e 64 81
e 64 82
e 64 86
e 64 87
e 64 90
e 64 93
e 64 95
e 64 97
e 64 99
e 64 100
e 65 82
e 65 83
e 65 84
e 65 86
e 65 87
e 65 91
e 65 93
e 65 100
e 66 81
e 66 85
e 66 86
e 66 87
e 66 88
e 66 89
e 66 90
e 66 92
e 66 93
e 66 94
e 66 96
e 66 97
e 66 99
e 66 100
e 67 81
e 67 82
e 67 83
e 67 84
e 67 86
e 67 90
e 67 93
e 67 95
e 67 97
e 67 99
e 68 82
e 68 84
e 68 88
e 68 93
e 68 94
e 68 96
e 68 97
e 68 99
e 69 81
e 69 84
e 69 85
e 69 86
e 69 87
e 69 89
e 69 90
e 69 92
e 69 93
e 69 94
e 69 95
e 69 99
e 70 83
e 70 85
e 70 87
e 70 88
e 70 89
e 70 90
e 70 93
e 70 94
e 70 95
e 70 97
e 70 98
e 70 99
e 71 84
e 71 85
e 71 86
e 71 87
e 71 88
e 71 89
e 71 90
e 71 91
e 71 92
e 71 93
e 71 95
e 71 99
e 72 81
e 72 82
e 72 83
e 72 87
e 72 89
e 72 94
e 72 95
e 72 97
e 72 98
e 72 100
e 73 81
e 73 82
e 73 83
e 73 84
e 73 85
e 73 86
e 73 90
e 73 91
e 73 93
e 73 94
e 73 95
e 73 98
e 73 99
e 74 81
e 74 85
e 74 86
e 74 87
e 74 88
e 74 89
e 74 90
e 74 91
e 74 92
e 74 93
e 74 97
e 74 100
e 75 81
e 75 84
e 75 85
e 75 88
e 75 89
e 75 94
e 75 97
e 75 98
e 75 99
e 75 100
e 76 81
e 76 82
e 76 83
e 76 84
e 76 86
e 76 87
e 76 88
e 76 89
e 76 90
e 76 94
e 76 95
e 76 97
e 76 99
e 76 100
e 77 82
e 77 85
e 77 87
e 77 90
e 77 92
e 77 93
e 77 94
e 77 96
e 77 98
e 77 99
e 78 81
e 78 82
e 78 84
e 78 87
e 78 88
e 78 89
e 78 90
e 78 92
e 78 93
e 78 95
e 78 96
e 78 99
e 79 81
e 79 82
e 79 85
e 79 86
e 79 87
e 79 90
e 79 94
e 79 98
e 80 81
e 80 82
e 80 83
e 80 84
e 80 87
e 80 88
e 80 89
e 80 90
e 80 92
e 80 94
e 80 95
e 80 96
e 80 98
e 80 100
