c FILE: balanced_graphs/balanced_60_3_25_2.col
c
c DESCRIPTION: Random balanced graph, 60 nodes,
c              partitions 3
c              edge probability 0.25
c
c G(60,3,0.25) graph
c number of vertices : 60
c max number of edges: 1770
c edge probability   : 0.25
c
c           Graph Stats
c number of vertices  : 60
c nonisolated vertices: 60
c number of edges     : 294
c edge density        : 0.1661
c max degree          : 17
c avg degree          : 9.80
c min degree          : 4
c
p col 60 294
e 1 23
e 1 28
e 1 34
e 1 42
e 1 44
e 1 47
e 1 52
e 1 56
e 1 58
e 1 59
e 1 60
e 2 21
e 2 29
e 2 37
e 2 38
e 2 41
e 2 44
e 2 49
e 2 54
e 2 57
e 2 59
e 3 31
e 3 32
e 3 43
e 3 53
e 3 54
e 3 56
e 4 30
e 4 31
e 4 33
e 4 37
e 4 41
e 4 46
e 4 52
e 4 53
e 4 59
e 5 29
e 5 30
e 5 33
e 5 34
e 5 41
e 5 44
e 5 50
e 5 51
e 5 53
e 6 32
e 6 33
e 6 58
e 6 60
e 7 35
e 7 37
e 7 38
e 7 42
e 7 43
e 7 44
e 7 47
e 7 48
e 7 50
e 7 53
e 7 54
e 7 58
e 7 59
e 8 22
e 8 23
e 8 30
e 8 34
e 8 35
e 8 37
e 8 43
e 8 48
e 8 54
e 8 56
e 8 58
e 9 25
e 9 27
e 9 31
e 9 35
e 9 37
e 9 40
e 9 51
e 9 53
e 9 58
e 10 24
e 10 26
e 10 27
e 10 29
e 10 30
e 10 31
e 10 39
e 10 52
e 10 54
e 10 55
e 10 57
e 10 60
e 11 23
e 11 24
e 11 26
e 11 31
e 11 34
e 11 35
e 11 38
e 11 43
e 11 44
e 11 45
e 11 52
e 11 55
e 11 57
e 12 23
e 12 26
e 12 31
e 12 35
e 12 42
e 12 43
e 12 47
e 13 21
e 13 25
e 13 26
e 13 35
e 13 42
e 13 47
e 13 54
e 13 55
e 13 59
e 14 24
e 14 36
e 14 38
e 14 41
e 14 43
e 14 50
e 14 51
e 14 52
e 15 31
e 15 32
e 15 38
e 15 40
e 15 41
e 15 42
e 15 46
e 15 47
e 15 48
e 15 51
e 15 56
e 16 26
e 16 30
e 16 41
e 16 44
e 16 47
e 16 50
e 16 55
e 16 56
e 17 21
e 17 25
e 17 28
e 17 29
e 17 31
e 17 37
e 17 42
e 17 43
e 17 44
e 17 45
e 17 46
e 17 47
e 17 49
e 17 50
e 17 52
e 18 27
e 18 29
e 18 31
e 18 45
e 18 48
e 18 55
e 18 56
e 18 57
e 19 22
e 19 35
e 19 41
e 19 46
e 19 56
e 19 59
e 19 60
e 20 30
e 20 32
e 20 33
e 20 38
e 20 39
e 20 41
e 20 43
e 20 44
e 20 45
e 20 47
e 20 48
e 20 49
e 21 43
e 21 49
e 21 50
e 21 56
e 21 57
e 21 60
e 22 46
e 22 47
e 22 51
e 22 56
e 22 57
e 22 60
e 23 48
e 23 51
e 23 55
e 23 59
e 24 42
e 24 53
e 24 55
e 24 58
e 25 44
e 25 46
e 25 49
e 25 50
e 25 51
e 26 46
e 26 49
e 26 51
e 26 52
e 26 55
e 27 46
e 27 48
e 27 49
e 27 58
e 28 41
e 28 50
e 28 51
e 28 52
e 28 57
e 29 42
e 29 44
e 29 46
e 29 47
e 29 48
e 29 51
e 29 53
e 29 54
e 29 60
e 30 42
e 30 46
e 30 47
e 30 57
e 31 46
e 31 47
e 31 48
e 31 51
e 31 54
e 31 55
e 31 57
e 31 58
e 32 47
e 32 49
e 32 50
e 32 52
e 33 42
e 33 47
e 33 49
e 33 57
e 33 60
e 34 43
e 34 48
e 34 49
e 34 54
e 34 57
e 35 51
e 35 54
e 35 55
e 36 48
e 36 52
e 36 54
e 36 55
e 36 57
e 37 43
e 37 49
e 37 56
e 37 59
e 38 42
e 38 45
e 38 50
e 38 59
e 39 41
e 39 45
e 39 50
e 39 54
e 39 55
e 39 59
e 39 60
e 40 45
e 40 47
e 40 51
e 40 52
e 40 57
