c FILE: balanced_graphs/balanced_100_5_10_2.col
c
c DESCRIPTION: Random balanced graph, 100 nodes,
c              partitions 5
c              edge probability 0.1
c
c G(100,5,0.1) graph
c number of vertices : 100
c max number of edges: 4950
c edge probability   : 0.1
c
c           Graph Stats
c number of vertices  : 100
c nonisolated vertices: 100
c number of edges     : 415
c edge density        : 0.0838
c max degree          : 14
c avg degree          : 8.30
c min degree          : 1
c
p col 100 415
e 1 40
e 1 51
e 1 53
e 1 66
e 1 97
e 2 21
e 2 47
e 2 57
e 2 59
e 2 71
e 2 81
e 2 87
e 2 94
e 3 31
e 3 42
e 3 50
e 3 57
e 3 64
e 3 82
e 3 89
e 4 22
e 4 28
e 4 34
e 4 76
e 4 79
e 4 91
e 4 97
e 5 24
e 5 31
e 5 46
e 5 53
e 5 61
e 5 62
e 5 66
e 5 78
e 5 81
e 5 84
e 6 27
e 6 29
e 6 30
e 6 33
e 6 58
e 6 62
e 6 80
e 6 82
e 6 83
e 6 88
e 7 21
e 7 51
e 7 53
e 7 54
e 7 73
e 7 81
e 7 82
e 7 98
e 8 22
e 8 40
e 8 43
e 8 50
e 8 55
e 8 58
e 8 64
e 8 77
e 8 87
e 8 88
e 8 90
e 9 22
e 9 28
e 9 37
e 9 47
e 9 59
e 9 62
e 9 72
e 9 82
e 9 91
e 9 94
e 9 95
e 9 98
e 10 21
e 10 24
e 10 29
e 10 31
e 10 53
e 10 60
e 10 63
e 10 77
e 10 85
e 10 86
e 10 97
e 11 30
e 11 31
e 11 39
e 11 45
e 11 47
e 11 48
e 11 49
e 11 56
e 11 59
e 11 60
e 11 62
e 11 94
e 12 25
e 12 32
e 12 34
e 12 56
e 12 60
e 12 61
e 12 72
e 12 97
e 13 22
e 13 27
e 13 41
e 13 49
e 13 70
e 13 81
e 13 82
e 13 85
e 14 30
e 14 36
e 14 46
e 14 55
e 14 59
e 14 62
e 14 66
e 14 71
e 14 82
e 14 89
e 14 95
e 15 27
e 15 39
e 15 64
e 15 86
e 15 92
e 15 98
e 16 46
e 16 59
e 16 64
e 16 69
e 16 99
e 17 36
e 17 41
e 17 51
e 17 62
e 17 69
e 17 74
e 17 95
e 18 29
e 18 43
e 18 44
e 18 63
e 18 66
e 18 77
e 18 86
e 19 24
e 19 25
e 19 29
e 19 50
e 19 65
e 19 75
e 19 85
e 19 88
e 19 90
e 19 95
e 20 28
e 20 34
e 20 38
e 20 47
e 20 53
e 20 56
e 20 68
e 20 70
e 20 74
e 20 86
e 20 88
e 20 93
e 21 43
e 21 45
e 21 58
e 21 59
e 21 65
e 22 53
e 22 60
e 22 70
e 22 71
e 22 77
e 22 81
e 22 82
e 22 90
e 23 41
e 23 50
e 23 86
e 24 48
e 24 98
e 25 43
e 25 60
e 25 61
e 25 76
e 25 85
e 25 93
e 25 98
e 25 100
e 26 57
e 26 64
e 26 74
e 26 75
e 26 79
e 26 87
e 27 41
e 27 44
e 27 46
e 27 48
e 27 56
e 27 69
e 27 72
e 27 81
e 27 88
e 28 48
e 28 56
e 28 63
e 28 69
e 28 71
e 28 79
e 28 91
e 29 48
e 29 53
e 29 88
e 29 89
e 29 92
e 30 41
e 30 51
e 30 65
e 30 66
e 30 72
e 30 75
e 30 98
e 31 72
e 31 77
e 31 98
e 32 62
e 32 68
e 32 69
e 32 77
e 32 82
e 32 98
e 32 99
e 33 42
e 33 46
e 33 53
e 33 63
e 33 66
e 33 69
e 33 70
e 33 85
e 33 94
e 34 41
e 34 45
e 34 49
e 34 52
e 34 54
e 34 61
e 34 68
e 34 85
e 34 97
e 35 88
e 36 42
e 36 48
e 36 49
e 36 51
e 36 59
e 36 72
e 36 78
e 36 82
e 36 86
e 37 47
e 37 49
e 37 58
e 37 72
e 37 76
e 37 78
e 37 80
e 37 82
e 37 89
e 37 96
e 38 55
e 38 62
e 38 68
e 38 70
e 38 83
e 38 95
e 38 100
e 39 52
e 39 60
e 39 64
e 39 68
e 39 69
e 39 76
e 39 81
e 39 87
e 39 99
e 40 45
e 40 56
e 40 68
e 40 86
e 40 88
e 40 91
e 41 67
e 41 74
e 41 81
e 42 64
e 42 82
e 43 61
e 43 68
e 43 74
e 43 75
e 43 78
e 43 84
e 43 90
e 43 100
e 44 66
e 44 84
e 44 88
e 44 91
e 44 94
e 46 67
e 46 100
e 47 76
e 47 79
e 47 82
e 48 61
e 48 73
e 48 76
e 48 80
e 49 69
e 49 85
e 49 93
e 49 97
e 50 72
e 50 74
e 50 75
e 50 77
e 50 81
e 50 95
e 50 96
e 50 100
e 51 67
e 51 75
e 51 89
e 51 90
e 52 69
e 52 77
e 52 86
e 52 93
e 53 66
e 53 84
e 53 88
e 53 89
e 54 61
e 54 80
e 54 85
e 54 87
e 54 91
e 54 92
e 55 63
e 55 74
e 55 78
e 55 93
e 55 96
e 56 70
e 56 88
e 56 90
e 56 92
e 56 95
e 56 96
e 57 73
e 57 96
e 58 64
e 58 94
e 58 99
e 59 73
e 60 63
e 60 100
e 61 84
e 61 96
e 62 84
e 62 86
e 62 89
e 62 96
e 62 98
e 63 88
e 63 95
e 64 85
e 65 90
e 65 98
e 67 81
e 67 97
e 67 98
e 68 82
e 68 94
e 69 91
e 69 92
e 70 83
e 71 97
e 72 91
e 72 92
e 75 86
e 75 95
e 76 82
e 77 95
e 78 92
e 78 94
e 78 95
e 79 81
e 79 89
e 79 94
e 80 86
