c FILE: balanced_graphs/balanced_140_7_25_3.col
c
c DESCRIPTION: Random balanced graph, 140 nodes,
c              partitions 7
c              edge probability 0.25
c
c G(140,7,0.25) graph
c number of vertices : 140
c max number of edges: 9730
c edge probability   : 0.25
c
c           Graph Stats
c number of vertices  : 140
c nonisolated vertices: 140
c number of edges     : 2099
c edge density        : 0.2157
c max degree          : 40
c avg degree          : 29.99
c min degree          : 15
c
p col 140 2099
e 1 26
e 1 27
e 1 32
e 1 33
e 1 35
e 1 38
e 1 39
e 1 46
e 1 47
e 1 50
e 1 52
e 1 58
e 1 68
e 1 75
e 1 76
e 1 81
e 1 88
e 1 91
e 1 92
e 1 93
e 1 100
e 1 103
e 1 105
e 1 106
e 1 107
e 1 108
e 1 115
e 1 116
e 1 119
e 1 128
e 1 130
e 1 134
e 1 135
e 1 136
e 2 23
e 2 27
e 2 29
e 2 31
e 2 43
e 2 44
e 2 46
e 2 47
e 2 49
e 2 54
e 2 56
e 2 61
e 2 62
e 2 69
e 2 70
e 2 81
e 2 88
e 2 93
e 2 95
e 2 97
e 2 100
e 2 104
e 2 108
e 2 109
e 2 112
e 2 116
e 2 118
e 2 119
e 2 131
e 2 133
e 2 135
e 3 32
e 3 37
e 3 43
e 3 44
e 3 45
e 3 46
e 3 58
e 3 59
e 3 60
e 3 62
e 3 63
e 3 72
e 3 91
e 3 103
e 3 104
e 3 106
e 3 108
e 3 127
e 3 128
e 3 129
e 3 130
e 3 139
e 4 21
e 4 25
e 4 33
e 4 49
e 4 50
e 4 54
e 4 63
e 4 67
e 4 69
e 4 73
e 4 76
e 4 77
e 4 84
e 4 87
e 4 88
e 4 89
e 4 93
e 4 97
e 4 98
e 4 100
e 4 101
e 4 108
e 4 111
e 4 117
e 4 120
e 4 122
e 4 123
e 4 125
e 4 126
e 4 132
e 5 25
e 5 26
e 5 27
e 5 29
e 5 30
e 5 33
e 5 35
e 5 41
e 5 42
e 5 45
e 5 47
e 5 57
e 5 61
e 5 62
e 5 63
e 5 64
e 5 68
e 5 72
e 5 73
e 5 79
e 5 81
e 5 92
e 5 100
e 5 106
e 5 110
e 5 111
e 5 112
e 5 113
e 5 118
e 5 130
e 6 21
e 6 29
e 6 35
e 6 37
e 6 38
e 6 40
e 6 42
e 6 47
e 6 60
e 6 62
e 6 63
e 6 69
e 6 70
e 6 71
e 6 72
e 6 73
e 6 75
e 6 79
e 6 82
e 6 98
e 6 99
e 6 102
e 6 103
e 6 106
e 6 107
e 6 109
e 6 116
e 6 126
e 6 129
e 6 130
e 6 136
e 7 23
e 7 30
e 7 37
e 7 40
e 7 41
e 7 44
e 7 46
e 7 47
e 7 59
e 7 64
e 7 69
e 7 71
e 7 78
e 7 80
e 7 84
e 7 86
e 7 87
e 7 93
e 7 94
e 7 95
e 7 96
e 7 98
e 7 108
e 7 112
e 7 119
e 7 121
e 7 131
e 8 27
e 8 30
e 8 33
e 8 43
e 8 45
e 8 48
e 8 49
e 8 50
e 8 53
e 8 56
e 8 62
e 8 67
e 8 79
e 8 82
e 8 88
e 8 96
e 8 97
e 8 99
e 8 103
e 8 105
e 8 107
e 8 110
e 8 112
e 8 114
e 8 116
e 8 127
e 8 131
e 8 135
e 8 138
e 8 139
e 9 22
e 9 28
e 9 45
e 9 48
e 9 59
e 9 71
e 9 73
e 9 75
e 9 78
e 9 81
e 9 82
e 9 85
e 9 89
e 9 92
e 9 95
e 9 96
e 9 98
e 9 100
e 9 104
e 9 105
e 9 109
e 9 115
e 9 119
e 9 121
e 9 123
e 9 125
e 9 128
e 9 135
e 10 21
e 10 28
e 10 32
e 10 39
e 10 41
e 10 45
e 10 48
e 10 53
e 10 58
e 10 64
e 10 67
e 10 85
e 10 90
e 10 98
e 10 99
e 10 100
e 10 104
e 10 105
e 10 111
e 10 114
e 10 116
e 10 119
e 10 131
e 10 138
e 11 22
e 11 23
e 11 29
e 11 30
e 11 32
e 11 33
e 11 34
e 11 38
e 11 39
e 11 43
e 11 46
e 11 48
e 11 53
e 11 56
e 11 58
e 11 66
e 11 69
e 11 70
e 11 80
e 11 84
e 11 87
e 11 90
e 11 92
e 11 96
e 11 98
e 11 101
e 11 102
e 11 105
e 11 109
e 11 116
e 11 121
e 11 122
e 11 130
e 11 132
e 11 133
e 12 36
e 12 44
e 12 54
e 12 59
e 12 62
e 12 65
e 12 67
e 12 75
e 12 79
e 12 83
e 12 86
e 12 87
e 12 90
e 12 92
e 12 95
e 12 98
e 12 99
e 12 104
e 12 105
e 12 106
e 12 109
e 12 111
e 12 116
e 12 118
e 12 120
e 12 132
e 12 135
e 12 136
e 13 22
e 13 25
e 13 33
e 13 46
e 13 49
e 13 50
e 13 64
e 13 66
e 13 71
e 13 73
e 13 74
e 13 76
e 13 77
e 13 78
e 13 80
e 13 95
e 13 99
e 13 104
e 13 106
e 13 110
e 13 111
e 13 115
e 13 118
e 13 126
e 13 127
e 13 140
e 14 21
e 14 29
e 14 31
e 14 34
e 14 35
e 14 41
e 14 48
e 14 54
e 14 55
e 14 56
e 14 58
e 14 65
e 14 66
e 14 72
e 14 78
e 14 82
e 14 89
e 14 90
e 14 91
e 14 96
e 14 105
e 14 106
e 14 107
e 14 112
e 14 119
e 14 121
e 14 126
e 15 22
e 15 24
e 15 34
e 15 35
e 15 36
e 15 38
e 15 39
e 15 40
e 15 41
e 15 49
e 15 50
e 15 53
e 15 54
e 15 59
e 15 64
e 15 66
e 15 67
e 15 70
e 15 71
e 15 78
e 15 80
e 15 81
e 15 83
e 15 86
e 15 87
e 15 89
e 15 90
e 15 91
e 15 93
e 15 103
e 15 114
e 15 117
e 15 118
e 15 125
e 15 126
e 15 130
e 16 24
e 16 31
e 16 38
e 16 43
e 16 44
e 16 47
e 16 51
e 16 52
e 16 57
e 16 60
e 16 65
e 16 67
e 16 68
e 16 74
e 16 75
e 16 76
e 16 80
e 16 81
e 16 83
e 16 90
e 16 94
e 16 95
e 16 96
e 16 97
e 16 100
e 16 104
e 16 105
e 16 110
e 16 119
e 16 121
e 16 122
e 16 124
e 16 128
e 16 138
e 17 21
e 17 26
e 17 27
e 17 34
e 17 35
e 17 44
e 17 50
e 17 52
e 17 54
e 17 59
e 17 66
e 17 69
e 17 72
e 17 74
e 17 75
e 17 84
e 17 87
e 17 102
e 17 104
e 17 105
e 17 107
e 17 112
e 17 114
e 17 115
e 17 119
e 17 121
e 17 128
e 17 133
e 17 134
e 17 136
e 17 137
e 18 22
e 18 23
e 18 25
e 18 40
e 18 41
e 18 45
e 18 48
e 18 50
e 18 56
e 18 60
e 18 66
e 18 69
e 18 71
e 18 74
e 18 75
e 18 77
e 18 83
e 18 88
e 18 90
e 18 97
e 18 99
e 18 103
e 18 107
e 18 109
e 18 117
e 18 124
e 18 129
e 18 132
e 18 134
e 18 135
e 18 137
e 18 140
e 19 21
e 19 22
e 19 26
e 19 27
e 19 30
e 19 33
e 19 36
e 19 39
e 19 48
e 19 49
e 19 51
e 19 54
e 19 78
e 19 83
e 19 84
e 19 87
e 19 91
e 19 95
e 19 96
e 19 99
e 19 102
e 19 105
e 19 106
e 19 108
e 19 115
e 19 122
e 19 124
e 19 125
e 19 133
e 19 139
e 20 22
e 20 33
e 20 36
e 20 37
e 20 38
e 20 42
e 20 43
e 20 45
e 20 46
e 20 52
e 20 54
e 20 57
e 20 58
e 20 62
e 20 63
e 20 69
e 20 77
e 20 80
e 20 83
e 20 90
e 20 94
e 20 95
e 20 101
e 20 104
e 20 109
e 20 112
e 20 117
e 20 124
e 20 125
e 20 127
e 20 128
e 20 137
e 21 44
e 21 49
e 21 51
e 21 54
e 21 64
e 21 73
e 21 77
e 21 78
e 21 83
e 21 87
e 21 89
e 21 92
e 21 96
e 21 97
e 21 99
e 21 104
e 21 105
e 21 106
e 21 109
e 21 115
e 21 119
e 21 120
e 21 132
e 21 133
e 21 134
e 22 42
e 22 46
e 22 51
e 22 57
e 22 63
e 22 64
e 22 70
e 22 71
e 22 73
e 22 74
e 22 75
e 22 78
e 22 79
e 22 81
e 22 83
e 22 86
e 22 99
e 22 102
e 22 103
e 22 108
e 22 109
e 22 111
e 22 117
e 22 129
e 23 43
e 23 46
e 23 48
e 23 49
e 23 53
e 23 56
e 23 58
e 23 59
e 23 66
e 23 73
e 23 76
e 23 80
e 23 87
e 23 92
e 23 94
e 23 97
e 23 101
e 23 105
e 23 107
e 23 115
e 23 127
e 23 130
e 23 135
e 24 42
e 24 50
e 24 53
e 24 57
e 24 58
e 24 62
e 24 69
e 24 70
e 24 71
e 24 72
e 24 79
e 24 80
e 24 82
e 24 84
e 24 86
e 24 89
e 24 98
e 24 100
e 24 101
e 24 102
e 24 103
e 24 107
e 24 114
e 24 115
e 24 118
e 24 122
e 24 124
e 24 132
e 24 137
e 24 138
e 24 140
e 25 41
e 25 42
e 25 46
e 25 54
e 25 65
e 25 66
e 25 72
e 25 77
e 25 81
e 25 82
e 25 85
e 25 90
e 25 93
e 25 95
e 25 104
e 25 106
e 25 110
e 25 113
e 25 114
e 25 121
e 25 128
e 25 132
e 25 137
e 25 138
e 26 42
e 26 46
e 26 47
e 26 54
e 26 58
e 26 59
e 26 60
e 26 64
e 26 66
e 26 67
e 26 72
e 26 73
e 26 79
e 26 83
e 26 89
e 26 90
e 26 91
e 26 99
e 26 103
e 26 106
e 26 107
e 26 111
e 26 115
e 26 118
e 26 120
e 26 125
e 26 130
e 26 132
e 26 137
e 26 138
e 26 140
e 27 43
e 27 50
e 27 54
e 27 58
e 27 60
e 27 61
e 27 62
e 27 67
e 27 68
e 27 69
e 27 70
e 27 81
e 27 82
e 27 83
e 27 84
e 27 85
e 27 99
e 27 103
e 27 104
e 27 111
e 27 112
e 27 115
e 27 127
e 27 134
e 27 136
e 27 138
e 27 140
e 28 46
e 28 55
e 28 63
e 28 65
e 28 68
e 28 77
e 28 80
e 28 85
e 28 89
e 28 91
e 28 92
e 28 93
e 28 95
e 28 97
e 28 100
e 28 103
e 28 107
e 28 110
e 28 116
e 28 117
e 28 119
e 28 121
e 28 125
e 28 127
e 28 132
e 28 138
e 28 139
e 28 140
e 29 41
e 29 43
e 29 44
e 29 46
e 29 49
e 29 52
e 29 53
e 29 63
e 29 65
e 29 70
e 29 73
e 29 80
e 29 83
e 29 84
e 29 86
e 29 87
e 29 100
e 29 104
e 29 112
e 29 131
e 29 138
e 29 139
e 30 47
e 30 48
e 30 52
e 30 55
e 30 58
e 30 59
e 30 60
e 30 62
e 30 67
e 30 69
e 30 70
e 30 78
e 30 79
e 30 85
e 30 89
e 30 94
e 30 95
e 30 97
e 30 98
e 30 99
e 30 101
e 30 102
e 30 106
e 30 108
e 30 111
e 30 114
e 30 118
e 30 122
e 30 124
e 30 125
e 30 131
e 30 133
e 30 134
e 31 41
e 31 42
e 31 43
e 31 47
e 31 48
e 31 52
e 31 60
e 31 62
e 31 63
e 31 65
e 31 66
e 31 69
e 31 72
e 31 75
e 31 84
e 31 85
e 31 86
e 31 87
e 31 88
e 31 89
e 31 90
e 31 95
e 31 106
e 31 114
e 31 117
e 31 121
e 31 125
e 31 126
e 31 134
e 31 136
e 31 140
e 32 43
e 32 44
e 32 45
e 32 52
e 32 55
e 32 79
e 32 80
e 32 93
e 32 95
e 32 99
e 32 101
e 32 103
e 32 108
e 32 110
e 32 112
e 32 116
e 32 119
e 32 120
e 32 121
e 32 123
e 32 125
e 32 131
e 32 135
e 32 136
e 32 137
e 32 139
e 32 140
e 33 51
e 33 56
e 33 57
e 33 62
e 33 63
e 33 80
e 33 84
e 33 89
e 33 93
e 33 99
e 33 101
e 33 103
e 33 106
e 33 116
e 33 117
e 33 118
e 33 119
e 33 122
e 33 130
e 33 135
e 34 47
e 34 51
e 34 53
e 34 57
e 34 62
e 34 63
e 34 67
e 34 70
e 34 74
e 34 75
e 34 82
e 34 87
e 34 94
e 34 95
e 34 99
e 34 101
e 34 103
e 34 106
e 34 107
e 34 112
e 34 115
e 34 118
e 34 119
e 34 126
e 34 132
e 34 136
e 34 139
e 35 42
e 35 43
e 35 44
e 35 45
e 35 47
e 35 52
e 35 55
e 35 59
e 35 62
e 35 66
e 35 74
e 35 77
e 35 87
e 35 92
e 35 95
e 35 96
e 35 97
e 35 100
e 35 105
e 35 110
e 35 122
e 35 125
e 35 126
e 35 129
e 35 131
e 35 133
e 35 134
e 35 136
e 36 42
e 36 47
e 36 49
e 36 50
e 36 51
e 36 52
e 36 54
e 36 55
e 36 56
e 36 64
e 36 66
e 36 74
e 36 83
e 36 89
e 36 93
e 36 95
e 36 101
e 36 116
e 36 117
e 36 120
e 36 122
e 36 126
e 36 127
e 36 129
e 36 131
e 36 135
e 36 136
e 36 140
e 37 41
e 37 42
e 37 43
e 37 44
e 37 47
e 37 48
e 37 49
e 37 56
e 37 57
e 37 58
e 37 61
e 37 65
e 37 72
e 37 74
e 37 79
e 37 83
e 37 84
e 37 91
e 37 92
e 37 93
e 37 96
e 37 97
e 37 105
e 37 107
e 37 108
e 37 113
e 37 114
e 37 115
e 37 116
e 37 117
e 37 121
e 37 122
e 37 127
e 38 44
e 38 48
e 38 50
e 38 52
e 38 53
e 38 57
e 38 60
e 38 73
e 38 88
e 38 91
e 38 92
e 38 97
e 38 100
e 38 106
e 38 107
e 38 121
e 38 126
e 38 132
e 38 136
e 38 138
e 39 42
e 39 45
e 39 52
e 39 55
e 39 57
e 39 60
e 39 71
e 39 80
e 39 90
e 39 99
e 39 101
e 39 102
e 39 105
e 39 106
e 39 107
e 39 118
e 39 125
e 39 127
e 39 128
e 39 131
e 39 134
e 40 52
e 40 56
e 40 57
e 40 59
e 40 60
e 40 61
e 40 70
e 40 71
e 40 80
e 40 84
e 40 89
e 40 102
e 40 110
e 40 116
e 40 123
e 41 63
e 41 67
e 41 69
e 41 71
e 41 75
e 41 79
e 41 80
e 41 82
e 41 85
e 41 90
e 41 100
e 41 101
e 41 102
e 41 107
e 41 112
e 41 118
e 41 120
e 41 125
e 41 130
e 41 133
e 41 139
e 42 67
e 42 68
e 42 73
e 42 74
e 42 76
e 42 86
e 42 89
e 42 90
e 42 93
e 42 94
e 42 98
e 42 120
e 42 121
e 42 122
e 42 123
e 42 124
e 42 128
e 42 132
e 42 133
e 42 134
e 42 138
e 43 61
e 43 74
e 43 79
e 43 81
e 43 83
e 43 84
e 43 88
e 43 92
e 43 93
e 43 101
e 43 104
e 43 105
e 43 107
e 43 110
e 43 112
e 43 118
e 43 127
e 43 135
e 43 137
e 43 139
e 43 140
e 44 61
e 44 62
e 44 63
e 44 66
e 44 67
e 44 68
e 44 73
e 44 75
e 44 78
e 44 83
e 44 84
e 44 87
e 44 90
e 44 91
e 44 99
e 44 105
e 44 109
e 44 112
e 44 113
e 44 123
e 44 131
e 45 66
e 45 67
e 45 70
e 45 72
e 45 86
e 45 87
e 45 89
e 45 93
e 45 100
e 45 107
e 45 117
e 45 118
e 45 120
e 45 122
e 45 124
e 45 126
e 46 62
e 46 67
e 46 69
e 46 82
e 46 83
e 46 91
e 46 94
e 46 103
e 46 104
e 46 105
e 46 111
e 46 116
e 46 121
e 46 124
e 47 64
e 47 69
e 47 71
e 47 82
e 47 86
e 47 87
e 47 93
e 47 98
e 47 101
e 47 106
e 47 107
e 47 108
e 47 113
e 47 116
e 47 117
e 47 127
e 47 128
e 47 130
e 47 134
e 48 61
e 48 64
e 48 70
e 48 73
e 48 74
e 48 77
e 48 80
e 48 82
e 48 85
e 48 87
e 48 88
e 48 89
e 48 90
e 48 94
e 48 103
e 48 107
e 48 111
e 48 123
e 48 127
e 48 128
e 48 131
e 48 138
e 49 62
e 49 67
e 49 71
e 49 72
e 49 78
e 49 90
e 49 91
e 49 98
e 49 99
e 49 101
e 49 102
e 49 107
e 49 112
e 49 115
e 49 116
e 49 118
e 49 119
e 49 123
e 49 129
e 49 131
e 49 132
e 49 137
e 50 62
e 50 65
e 50 67
e 50 71
e 50 78
e 50 94
e 50 105
e 50 112
e 50 115
e 50 116
e 50 118
e 51 66
e 51 82
e 51 85
e 51 87
e 51 88
e 51 89
e 51 93
e 51 95
e 51 99
e 51 102
e 51 106
e 51 113
e 51 114
e 51 136
e 51 139
e 51 140
e 52 67
e 52 71
e 52 73
e 52 75
e 52 85
e 52 88
e 52 90
e 52 100
e 52 101
e 52 102
e 52 103
e 52 110
e 52 111
e 52 114
e 52 116
e 52 117
e 52 122
e 52 123
e 52 125
e 52 139
e 52 140
e 53 61
e 53 65
e 53 76
e 53 81
e 53 85
e 53 86
e 53 87
e 53 91
e 53 95
e 53 97
e 53 102
e 53 112
e 53 113
e 53 117
e 53 124
e 53 132
e 53 135
e 53 136
e 53 138
e 54 61
e 54 68
e 54 74
e 54 84
e 54 86
e 54 87
e 54 90
e 54 100
e 54 102
e 54 104
e 54 108
e 54 109
e 54 116
e 54 119
e 54 120
e 54 132
e 54 137
e 55 61
e 55 63
e 55 64
e 55 68
e 55 70
e 55 71
e 55 80
e 55 83
e 55 86
e 55 89
e 55 97
e 55 103
e 55 104
e 55 105
e 55 107
e 55 119
e 55 132
e 55 134
e 55 136
e 55 138
e 55 139
e 55 140
e 56 62
e 56 65
e 56 72
e 56 76
e 56 82
e 56 84
e 56 85
e 56 87
e 56 93
e 56 100
e 56 102
e 56 106
e 56 113
e 56 118
e 56 120
e 56 123
e 56 124
e 56 128
e 56 136
e 56 137
e 56 139
e 56 140
e 57 68
e 57 70
e 57 72
e 57 79
e 57 80
e 57 87
e 57 88
e 57 95
e 57 98
e 57 102
e 57 106
e 57 108
e 57 115
e 57 117
e 57 119
e 57 122
e 57 127
e 57 134
e 57 137
e 58 66
e 58 72
e 58 73
e 58 75
e 58 77
e 58 78
e 58 79
e 58 81
e 58 82
e 58 84
e 58 86
e 58 87
e 58 88
e 58 101
e 58 105
e 58 108
e 58 110
e 58 111
e 58 112
e 58 121
e 58 128
e 58 130
e 58 134
e 58 135
e 58 137
e 58 138
e 59 65
e 59 72
e 59 76
e 59 77
e 59 79
e 59 80
e 59 84
e 59 85
e 59 91
e 59 92
e 59 93
e 59 94
e 59 99
e 59 106
e 59 107
e 59 111
e 59 112
e 59 124
e 59 125
e 59 133
e 59 138
e 60 62
e 60 69
e 60 70
e 60 76
e 60 81
e 60 83
e 60 84
e 60 91
e 60 93
e 60 101
e 60 112
e 60 115
e 60 119
e 60 125
e 60 132
e 60 134
e 60 135
e 60 137
e 61 82
e 61 91
e 61 93
e 61 102
e 61 104
e 61 107
e 61 118
e 61 120
e 61 122
e 61 134
e 61 135
e 62 81
e 62 85
e 62 86
e 62 89
e 62 108
e 62 112
e 62 120
e 62 122
e 62 127
e 62 130
e 62 134
e 63 87
e 63 91
e 63 100
e 63 108
e 63 110
e 63 123
e 63 124
e 63 128
e 63 133
e 63 137
e 63 139
e 64 87
e 64 89
e 64 95
e 64 96
e 64 100
e 64 108
e 64 110
e 64 112
e 64 117
e 64 128
e 65 89
e 65 92
e 65 93
e 65 99
e 65 106
e 65 109
e 65 114
e 65 116
e 65 117
e 65 120
e 65 123
e 65 126
e 65 127
e 65 132
e 66 84
e 66 91
e 66 93
e 66 96
e 66 99
e 66 118
e 66 133
e 67 85
e 67 87
e 67 89
e 67 90
e 67 96
e 67 100
e 67 101
e 67 118
e 67 121
e 67 128
e 67 131
e 67 132
e 67 137
e 68 86
e 68 87
e 68 89
e 68 90
e 68 91
e 68 93
e 68 97
e 68 99
e 68 100
e 68 103
e 68 104
e 68 105
e 68 106
e 68 113
e 68 130
e 68 134
e 68 135
e 69 81
e 69 86
e 69 89
e 69 104
e 69 105
e 69 107
e 69 108
e 69 109
e 69 110
e 69 119
e 69 124
e 69 129
e 69 130
e 69 131
e 69 132
e 69 135
e 69 136
e 69 137
e 69 140
e 70 85
e 70 86
e 70 87
e 70 96
e 70 98
e 70 99
e 70 102
e 70 108
e 70 110
e 70 111
e 70 114
e 70 118
e 70 119
e 70 122
e 70 123
e 70 125
e 70 127
e 70 131
e 70 133
e 70 137
e 70 139
e 71 82
e 71 89
e 71 97
e 71 107
e 71 111
e 71 112
e 71 114
e 71 122
e 71 124
e 71 125
e 71 129
e 71 131
e 71 135
e 71 139
e 72 83
e 72 86
e 72 89
e 72 91
e 72 92
e 72 93
e 72 97
e 72 100
e 72 102
e 72 105
e 72 107
e 72 109
e 72 111
e 72 118
e 72 120
e 72 122
e 72 124
e 72 127
e 72 128
e 72 129
e 72 130
e 72 131
e 72 133
e 72 138
e 73 94
e 73 101
e 73 105
e 73 110
e 73 112
e 73 117
e 73 119
e 73 128
e 73 133
e 73 138
e 74 85
e 74 87
e 74 88
e 74 91
e 74 99
e 74 104
e 74 109
e 74 110
e 74 113
e 74 115
e 74 117
e 74 119
e 74 127
e 74 130
e 74 132
e 74 134
e 75 85
e 75 95
e 75 103
e 75 110
e 75 113
e 75 116
e 75 123
e 75 130
e 75 134
e 75 136
e 75 137
e 76 81
e 76 86
e 76 87
e 76 98
e 76 99
e 76 106
e 76 110
e 76 111
e 76 116
e 76 117
e 76 120
e 76 122
e 76 127
e 76 128
e 76 129
e 76 136
e 77 84
e 77 89
e 77 96
e 77 97
e 77 101
e 77 106
e 77 107
e 77 108
e 77 109
e 77 114
e 77 118
e 77 120
e 77 124
e 77 125
e 77 126
e 77 130
e 77 132
e 77 133
e 77 139
e 78 84
e 78 85
e 78 87
e 78 101
e 78 106
e 78 110
e 78 114
e 78 118
e 78 121
e 78 122
e 78 126
e 79 83
e 79 86
e 79 89
e 79 93
e 79 95
e 79 96
e 79 98
e 79 102
e 79 107
e 79 108
e 79 109
e 79 110
e 79 112
e 79 120
e 79 122
e 79 124
e 79 132
e 80 82
e 80 83
e 80 84
e 80 87
e 80 92
e 80 94
e 80 98
e 80 104
e 80 114
e 80 117
e 80 118
e 80 121
e 80 124
e 80 126
e 80 127
e 80 131
e 80 132
e 80 133
e 80 140
e 81 104
e 81 114
e 81 116
e 81 119
e 81 120
e 81 121
e 81 123
e 81 127
e 81 128
e 81 129
e 81 133
e 81 135
e 81 138
e 81 139
e 82 114
e 82 115
e 82 116
e 82 117
e 82 118
e 82 119
e 82 126
e 82 127
e 82 129
e 83 106
e 83 107
e 83 109
e 83 120
e 83 122
e 83 124
e 83 126
e 83 133
e 83 135
e 83 137
e 83 140
e 84 101
e 84 105
e 84 109
e 84 112
e 84 115
e 84 124
e 84 127
e 84 129
e 84 136
e 84 137
e 84 140
e 85 102
e 85 114
e 85 117
e 85 127
e 85 129
e 85 130
e 85 135
e 85 138
e 85 140
e 86 108
e 86 112
e 86 119
e 86 122
e 86 125
e 86 127
e 86 128
e 86 134
e 86 136
e 86 138
e 86 140
e 87 109
e 87 110
e 87 121
e 87 122
e 87 125
e 87 127
e 87 136
e 87 140
e 88 104
e 88 107
e 88 114
e 88 119
e 88 121
e 88 122
e 88 126
e 88 127
e 88 129
e 88 131
e 88 132
e 88 133
e 88 136
e 88 139
e 88 140
e 89 105
e 89 110
e 89 123
e 89 125
e 89 132
e 89 134
e 89 138
e 90 102
e 90 112
e 90 114
e 90 118
e 90 124
e 90 128
e 90 133
e 90 140
e 91 104
e 91 114
e 91 115
e 91 119
e 91 121
e 91 126
e 91 132
e 91 138
e 92 101
e 92 102
e 92 107
e 92 109
e 92 110
e 92 118
e 92 120
e 92 121
e 92 127
e 92 128
e 92 130
e 92 131
e 92 133
e 92 134
e 92 138
e 93 106
e 93 110
e 93 114
e 93 117
e 93 122
e 93 123
e 93 128
e 93 135
e 93 137
e 93 140
e 94 103
e 94 109
e 94 113
e 94 115
e 94 116
e 94 119
e 94 120
e 94 121
e 94 125
e 94 129
e 94 133
e 94 134
e 95 103
e 95 105
e 95 111
e 95 113
e 95 114
e 95 119
e 95 120
e 95 123
e 95 125
e 95 128
e 95 130
e 95 135
e 95 136
e 96 103
e 96 111
e 96 115
e 96 116
e 96 118
e 96 121
e 96 122
e 96 130
e 96 131
e 96 133
e 96 136
e 96 138
e 97 105
e 97 131
e 97 132
e 97 139
e 98 107
e 98 108
e 98 109
e 98 110
e 98 115
e 98 119
e 98 130
e 98 133
e 98 134
e 98 138
e 98 140
e 99 102
e 99 106
e 99 110
e 99 114
e 99 115
e 99 117
e 99 121
e 99 123
e 99 125
e 99 135
e 99 138
e 99 139
e 99 140
e 100 104
e 100 106
e 100 108
e 100 109
e 100 113
e 100 122
e 100 124
e 100 132
e 100 133
e 100 136
e 100 140
e 101 121
e 101 122
e 101 129
e 101 133
e 101 134
e 102 123
e 102 130
e 102 133
e 102 134
e 102 136
e 102 138
e 103 125
e 103 130
e 103 131
e 103 136
e 103 137
e 104 129
e 104 135
e 104 139
e 105 123
e 105 134
e 105 136
e 105 140
e 106 131
e 106 136
e 106 137
e 106 139
e 106 140
e 107 125
e 107 129
e 108 124
e 108 131
e 108 132
e 108 139
e 109 123
e 109 127
e 109 132
e 110 123
e 110 129
e 110 132
e 110 135
e 110 136
e 110 137
e 111 123
e 111 127
e 111 131
e 111 134
e 111 136
e 111 137
e 111 138
e 112 124
e 112 125
e 112 131
e 112 133
e 112 136
e 112 138
e 113 122
e 114 122
e 114 128
e 114 130
e 114 136
e 114 140
e 115 123
e 115 126
e 115 128
e 115 131
e 115 132
e 115 134
e 115 137
e 115 139
e 116 123
e 116 128
e 116 129
e 116 134
e 116 138
e 117 122
e 117 123
e 117 127
e 117 139
e 117 140
e 118 124
e 118 137
e 118 140
e 119 123
e 119 124
e 119 131
e 119 134
e 119 139
e 120 126
e 120 135
e 120 138
