c FILE: balanced_graphs/balanced_60_3_50_3.col
c
c DESCRIPTION: Random balanced graph, 60 nodes,
c              partitions 3
c              edge probability 0.5
c
c G(60,3,0.5) graph
c number of vertices : 60
c max number of edges: 1770
c edge probability   : 0.5
c
c           Graph Stats
c number of vertices  : 60
c nonisolated vertices: 60
c number of edges     : 615
c edge density        : 0.3475
c max degree          : 29
c avg degree          : 20.50
c min degree          : 13
c
p col 60 615
e 1 23
e 1 24
e 1 27
e 1 28
e 1 33
e 1 35
e 1 37
e 1 39
e 1 41
e 1 42
e 1 43
e 1 46
e 1 47
e 1 49
e 1 58
e 1 59
e 2 23
e 2 24
e 2 25
e 2 27
e 2 28
e 2 29
e 2 38
e 2 46
e 2 47
e 2 49
e 2 50
e 2 53
e 2 55
e 2 56
e 2 57
e 2 58
e 3 21
e 3 24
e 3 25
e 3 28
e 3 32
e 3 38
e 3 40
e 3 41
e 3 47
e 3 48
e 3 50
e 3 53
e 3 54
e 3 58
e 4 22
e 4 24
e 4 25
e 4 26
e 4 28
e 4 29
e 4 32
e 4 34
e 4 35
e 4 37
e 4 41
e 4 43
e 4 44
e 4 45
e 4 50
e 4 55
e 4 58
e 4 60
e 5 21
e 5 22
e 5 23
e 5 30
e 5 31
e 5 33
e 5 34
e 5 35
e 5 36
e 5 37
e 5 41
e 5 42
e 5 46
e 5 47
e 5 53
e 5 59
e 6 33
e 6 37
e 6 39
e 6 40
e 6 42
e 6 43
e 6 44
e 6 47
e 6 48
e 6 51
e 6 52
e 6 54
e 6 57
e 6 59
e 6 60
e 7 22
e 7 23
e 7 24
e 7 27
e 7 28
e 7 30
e 7 31
e 7 32
e 7 35
e 7 39
e 7 40
e 7 42
e 7 46
e 7 47
e 7 48
e 7 50
e 7 51
e 7 54
e 7 57
e 7 58
e 7 59
e 8 22
e 8 23
e 8 26
e 8 27
e 8 28
e 8 29
e 8 30
e 8 33
e 8 34
e 8 36
e 8 37
e 8 38
e 8 39
e 8 43
e 8 44
e 8 45
e 8 47
e 8 49
e 8 51
e 8 54
e 8 57
e 8 58
e 8 59
e 9 22
e 9 24
e 9 25
e 9 28
e 9 35
e 9 39
e 9 40
e 9 42
e 9 43
e 9 44
e 9 45
e 9 47
e 9 48
e 9 50
e 9 51
e 9 52
e 9 54
e 9 55
e 9 56
e 9 60
e 10 26
e 10 27
e 10 28
e 10 31
e 10 32
e 10 35
e 10 38
e 10 39
e 10 40
e 10 41
e 10 43
e 10 46
e 10 47
e 10 54
e 10 55
e 10 58
e 10 60
e 11 21
e 11 22
e 11 26
e 11 27
e 11 28
e 11 32
e 11 33
e 11 34
e 11 35
e 11 37
e 11 38
e 11 39
e 11 40
e 11 41
e 11 47
e 11 50
e 11 51
e 11 53
e 11 55
e 12 23
e 12 27
e 12 32
e 12 33
e 12 35
e 12 36
e 12 37
e 12 38
e 12 41
e 12 43
e 12 44
e 12 46
e 12 48
e 12 51
e 12 55
e 12 57
e 12 58
e 12 60
e 13 21
e 13 23
e 13 24
e 13 27
e 13 28
e 13 30
e 13 32
e 13 34
e 13 36
e 13 37
e 13 38
e 13 39
e 13 45
e 13 46
e 13 47
e 13 53
e 13 54
e 13 55
e 13 56
e 13 57
e 13 58
e 13 60
e 14 21
e 14 22
e 14 24
e 14 32
e 14 33
e 14 35
e 14 36
e 14 37
e 14 38
e 14 39
e 14 41
e 14 43
e 14 44
e 14 45
e 14 47
e 14 48
e 14 50
e 14 51
e 14 52
e 14 53
e 14 54
e 14 56
e 14 57
e 15 21
e 15 22
e 15 23
e 15 24
e 15 26
e 15 28
e 15 32
e 15 33
e 15 34
e 15 35
e 15 36
e 15 39
e 15 40
e 15 41
e 15 42
e 15 43
e 15 45
e 15 46
e 15 47
e 15 48
e 15 50
e 15 54
e 15 55
e 15 56
e 15 58
e 15 60
e 16 22
e 16 25
e 16 27
e 16 28
e 16 29
e 16 30
e 16 31
e 16 32
e 16 35
e 16 36
e 16 38
e 16 40
e 16 42
e 16 43
e 16 45
e 16 46
e 16 47
e 16 50
e 16 51
e 16 52
e 16 53
e 16 54
e 16 55
e 16 56
e 16 59
e 16 60
e 17 21
e 17 22
e 17 26
e 17 30
e 17 34
e 17 35
e 17 37
e 17 38
e 17 40
e 17 41
e 17 42
e 17 44
e 17 47
e 17 48
e 17 49
e 17 55
e 17 56
e 17 57
e 18 25
e 18 27
e 18 30
e 18 31
e 18 33
e 18 34
e 18 35
e 18 37
e 18 38
e 18 39
e 18 43
e 18 45
e 18 46
e 18 50
e 18 51
e 18 53
e 18 56
e 18 59
e 19 21
e 19 22
e 19 24
e 19 25
e 19 26
e 19 27
e 19 28
e 19 30
e 19 31
e 19 32
e 19 35
e 19 37
e 19 41
e 19 42
e 19 43
e 19 45
e 19 46
e 19 47
e 19 48
e 19 49
e 19 51
e 19 52
e 19 54
e 19 57
e 19 58
e 19 59
e 19 60
e 20 22
e 20 24
e 20 25
e 20 27
e 20 29
e 20 31
e 20 34
e 20 41
e 20 43
e 20 44
e 20 45
e 20 46
e 20 47
e 20 51
e 20 52
e 20 53
e 20 55
e 20 56
e 20 57
e 20 59
e 21 41
e 21 42
e 21 43
e 21 44
e 21 46
e 21 47
e 21 48
e 21 50
e 21 51
e 21 52
e 21 55
e 21 57
e 21 58
e 21 60
e 22 42
e 22 45
e 22 46
e 22 48
e 22 49
e 22 53
e 22 56
e 22 57
e 22 58
e 22 59
e 22 60
e 23 41
e 23 42
e 23 44
e 23 46
e 23 48
e 23 49
e 23 50
e 23 52
e 23 55
e 23 56
e 23 58
e 23 60
e 24 44
e 24 47
e 24 49
e 24 50
e 24 51
e 24 52
e 24 53
e 24 54
e 24 56
e 24 57
e 24 58
e 25 41
e 25 42
e 25 44
e 25 45
e 25 48
e 25 49
e 25 51
e 25 52
e 25 53
e 25 55
e 25 57
e 25 58
e 26 42
e 26 43
e 26 45
e 26 46
e 26 52
e 26 53
e 26 54
e 26 55
e 26 58
e 26 59
e 26 60
e 27 45
e 27 52
e 27 54
e 27 57
e 27 58
e 27 60
e 28 42
e 28 45
e 28 46
e 28 47
e 28 48
e 28 49
e 28 50
e 28 52
e 28 57
e 29 41
e 29 43
e 29 45
e 29 50
e 29 51
e 29 53
e 29 56
e 29 59
e 30 41
e 30 43
e 30 44
e 30 45
e 30 47
e 30 48
e 30 51
e 30 52
e 30 53
e 30 55
e 30 56
e 30 57
e 30 60
e 31 42
e 31 43
e 31 46
e 31 49
e 31 52
e 31 53
e 31 54
e 31 55
e 31 56
e 31 57
e 31 58
e 31 60
e 32 41
e 32 42
e 32 43
e 32 44
e 32 47
e 32 48
e 32 49
e 32 51
e 32 52
e 32 53
e 32 54
e 32 55
e 32 56
e 32 57
e 32 58
e 32 59
e 32 60
e 33 41
e 33 44
e 33 46
e 33 47
e 33 49
e 33 52
e 33 53
e 33 56
e 33 57
e 33 59
e 33 60
e 34 45
e 34 46
e 34 47
e 34 48
e 34 49
e 34 50
e 34 51
e 34 53
e 34 54
e 34 56
e 34 57
e 35 41
e 35 42
e 35 43
e 35 44
e 35 47
e 35 48
e 35 49
e 35 54
e 35 57
e 35 58
e 36 41
e 36 44
e 36 45
e 36 46
e 36 48
e 36 51
e 36 52
e 36 54
e 36 55
e 36 57
e 36 59
e 37 44
e 37 46
e 37 47
e 37 49
e 37 50
e 37 51
e 37 57
e 37 58
e 37 59
e 38 42
e 38 43
e 38 44
e 38 45
e 38 47
e 38 50
e 38 52
e 38 53
e 38 54
e 38 55
e 38 58
e 38 59
e 39 43
e 39 44
e 39 45
e 39 46
e 39 47
e 39 49
e 39 52
e 39 56
e 39 57
e 39 58
e 39 59
e 39 60
e 40 43
e 40 44
e 40 46
e 40 47
e 40 50
e 40 51
e 40 54
e 40 55
e 40 57
e 40 58
