c FILE: balanced_graphs/balanced_100_5_50_5.col
c
c DESCRIPTION: Random balanced graph, 100 nodes,
c              partitions 5
c              edge probability 0.5
c
c G(100,5,0.5) graph
c number of vertices : 100
c max number of edges: 4950
c edge probability   : 0.5
c
c           Graph Stats
c number of vertices  : 100
c nonisolated vertices: 100
c number of edges     : 2086
c edge density        : 0.4214
c max degree          : 51
c avg degree          : 41.72
c min degree          : 30
c
p col 100 2086
e 1 21
e 1 24
e 1 25
e 1 28
e 1 29
e 1 30
e 1 31
e 1 32
e 1 33
e 1 34
e 1 35
e 1 36
e 1 40
e 1 45
e 1 46
e 1 47
e 1 48
e 1 52
e 1 53
e 1 54
e 1 55
e 1 57
e 1 58
e 1 62
e 1 63
e 1 65
e 1 69
e 1 70
e 1 72
e 1 73
e 1 74
e 1 75
e 1 76
e 1 78
e 1 82
e 1 83
e 1 85
e 1 93
e 1 94
e 1 95
e 1 97
e 1 98
e 1 99
e 2 22
e 2 24
e 2 25
e 2 26
e 2 27
e 2 29
e 2 30
e 2 35
e 2 37
e 2 41
e 2 42
e 2 44
e 2 47
e 2 49
e 2 50
e 2 52
e 2 54
e 2 56
e 2 57
e 2 59
e 2 61
e 2 63
e 2 65
e 2 68
e 2 72
e 2 74
e 2 77
e 2 78
e 2 79
e 2 80
e 2 81
e 2 83
e 2 84
e 2 89
e 2 91
e 2 93
e 2 94
e 2 95
e 2 97
e 3 21
e 3 24
e 3 25
e 3 26
e 3 27
e 3 28
e 3 30
e 3 32
e 3 33
e 3 34
e 3 37
e 3 38
e 3 39
e 3 41
e 3 42
e 3 44
e 3 45
e 3 46
e 3 47
e 3 49
e 3 50
e 3 51
e 3 52
e 3 54
e 3 55
e 3 57
e 3 58
e 3 59
e 3 60
e 3 62
e 3 65
e 3 67
e 3 68
e 3 73
e 3 76
e 3 78
e 3 79
e 3 80
e 3 81
e 3 84
e 3 86
e 3 88
e 3 89
e 3 92
e 3 93
e 3 94
e 3 95
e 3 100
e 4 23
e 4 24
e 4 26
e 4 27
e 4 28
e 4 31
e 4 32
e 4 33
e 4 34
e 4 36
e 4 39
e 4 40
e 4 41
e 4 44
e 4 45
e 4 46
e 4 50
e 4 51
e 4 56
e 4 58
e 4 62
e 4 63
e 4 64
e 4 65
e 4 66
e 4 68
e 4 69
e 4 70
e 4 71
e 4 73
e 4 74
e 4 75
e 4 76
e 4 77
e 4 80
e 4 82
e 4 84
e 4 86
e 4 92
e 4 93
e 4 94
e 4 95
e 4 96
e 4 98
e 4 99
e 4 100
e 5 21
e 5 22
e 5 24
e 5 29
e 5 30
e 5 31
e 5 33
e 5 38
e 5 39
e 5 41
e 5 43
e 5 44
e 5 45
e 5 52
e 5 57
e 5 60
e 5 61
e 5 62
e 5 63
e 5 64
e 5 65
e 5 68
e 5 69
e 5 70
e 5 71
e 5 72
e 5 74
e 5 75
e 5 76
e 5 77
e 5 78
e 5 81
e 5 82
e 5 83
e 5 84
e 5 85
e 5 86
e 5 89
e 5 90
e 5 91
e 5 92
e 5 93
e 5 94
e 5 96
e 5 98
e 5 100
e 6 24
e 6 25
e 6 27
e 6 28
e 6 29
e 6 30
e 6 32
e 6 33
e 6 35
e 6 36
e 6 37
e 6 38
e 6 40
e 6 42
e 6 43
e 6 45
e 6 46
e 6 51
e 6 53
e 6 54
e 6 55
e 6 57
e 6 59
e 6 61
e 6 63
e 6 67
e 6 69
e 6 70
e 6 71
e 6 72
e 6 73
e 6 74
e 6 75
e 6 77
e 6 80
e 6 81
e 6 83
e 6 86
e 6 87
e 6 89
e 6 91
e 6 92
e 6 93
e 6 94
e 6 95
e 6 97
e 6 100
e 7 21
e 7 23
e 7 24
e 7 25
e 7 26
e 7 27
e 7 28
e 7 31
e 7 32
e 7 33
e 7 34
e 7 35
e 7 36
e 7 40
e 7 41
e 7 44
e 7 46
e 7 47
e 7 48
e 7 50
e 7 51
e 7 52
e 7 53
e 7 56
e 7 58
e 7 59
e 7 61
e 7 67
e 7 68
e 7 69
e 7 72
e 7 73
e 7 75
e 7 77
e 7 80
e 7 81
e 7 83
e 7 85
e 7 86
e 7 87
e 7 89
e 7 92
e 7 93
e 7 94
e 7 96
e 7 98
e 7 100
e 8 21
e 8 23
e 8 25
e 8 26
e 8 27
e 8 28
e 8 29
e 8 30
e 8 33
e 8 36
e 8 38
e 8 39
e 8 40
e 8 43
e 8 44
e 8 45
e 8 46
e 8 47
e 8 49
e 8 50
e 8 51
e 8 52
e 8 53
e 8 55
e 8 56
e 8 57
e 8 58
e 8 59
e 8 60
e 8 61
e 8 62
e 8 64
e 8 65
e 8 66
e 8 67
e 8 70
e 8 71
e 8 72
e 8 73
e 8 74
e 8 76
e 8 77
e 8 78
e 8 80
e 8 84
e 8 89
e 8 92
e 8 94
e 8 97
e 8 98
e 8 100
e 9 22
e 9 26
e 9 27
e 9 28
e 9 30
e 9 34
e 9 35
e 9 37
e 9 38
e 9 39
e 9 40
e 9 41
e 9 42
e 9 44
e 9 46
e 9 49
e 9 50
e 9 54
e 9 56
e 9 58
e 9 61
e 9 63
e 9 66
e 9 68
e 9 70
e 9 71
e 9 73
e 9 75
e 9 78
e 9 79
e 9 80
e 9 84
e 9 85
e 9 86
e 9 87
e 9 88
e 9 90
e 9 94
e 9 95
e 9 96
e 9 97
e 9 99
e 9 100
e 10 22
e 10 23
e 10 24
e 10 26
e 10 27
e 10 28
e 10 31
e 10 32
e 10 33
e 10 34
e 10 36
e 10 37
e 10 38
e 10 41
e 10 45
e 10 46
e 10 50
e 10 51
e 10 52
e 10 54
e 10 55
e 10 57
e 10 58
e 10 60
e 10 62
e 10 63
e 10 64
e 10 65
e 10 67
e 10 68
e 10 70
e 10 71
e 10 72
e 10 73
e 10 75
e 10 79
e 10 80
e 10 82
e 10 83
e 10 84
e 10 86
e 10 88
e 10 90
e 10 91
e 10 93
e 10 94
e 10 95
e 10 96
e 11 21
e 11 22
e 11 25
e 11 26
e 11 29
e 11 32
e 11 35
e 11 41
e 11 42
e 11 43
e 11 45
e 11 46
e 11 47
e 11 48
e 11 50
e 11 51
e 11 52
e 11 54
e 11 56
e 11 57
e 11 60
e 11 62
e 11 68
e 11 71
e 11 72
e 11 73
e 11 74
e 11 76
e 11 77
e 11 78
e 11 79
e 11 80
e 11 81
e 11 82
e 11 85
e 11 86
e 11 89
e 11 92
e 11 93
e 11 94
e 11 95
e 11 99
e 12 21
e 12 22
e 12 25
e 12 27
e 12 28
e 12 29
e 12 30
e 12 33
e 12 34
e 12 35
e 12 36
e 12 38
e 12 40
e 12 41
e 12 44
e 12 45
e 12 50
e 12 51
e 12 53
e 12 55
e 12 56
e 12 57
e 12 59
e 12 60
e 12 62
e 12 67
e 12 68
e 12 69
e 12 70
e 12 73
e 12 76
e 12 77
e 12 81
e 12 85
e 12 86
e 12 87
e 12 90
e 12 96
e 12 98
e 12 99
e 13 22
e 13 24
e 13 25
e 13 27
e 13 29
e 13 31
e 13 32
e 13 33
e 13 34
e 13 35
e 13 36
e 13 39
e 13 40
e 13 43
e 13 44
e 13 45
e 13 46
e 13 47
e 13 51
e 13 52
e 13 54
e 13 55
e 13 56
e 13 58
e 13 59
e 13 60
e 13 61
e 13 62
e 13 63
e 13 65
e 13 66
e 13 67
e 13 72
e 13 74
e 13 75
e 13 76
e 13 77
e 13 78
e 13 79
e 13 80
e 13 81
e 13 83
e 13 88
e 13 91
e 13 94
e 13 95
e 13 96
e 13 98
e 14 22
e 14 23
e 14 24
e 14 25
e 14 33
e 14 35
e 14 36
e 14 41
e 14 43
e 14 44
e 14 45
e 14 46
e 14 47
e 14 49
e 14 50
e 14 51
e 14 52
e 14 55
e 14 56
e 14 57
e 14 58
e 14 59
e 14 60
e 14 64
e 14 68
e 14 70
e 14 72
e 14 73
e 14 77
e 14 79
e 14 84
e 14 86
e 14 87
e 14 89
e 14 90
e 14 94
e 14 95
e 14 97
e 14 98
e 14 100
e 15 22
e 15 23
e 15 24
e 15 29
e 15 30
e 15 31
e 15 32
e 15 35
e 15 36
e 15 37
e 15 38
e 15 39
e 15 41
e 15 42
e 15 45
e 15 47
e 15 48
e 15 50
e 15 51
e 15 59
e 15 60
e 15 61
e 15 65
e 15 66
e 15 67
e 15 68
e 15 69
e 15 71
e 15 75
e 15 78
e 15 79
e 15 84
e 15 86
e 15 89
e 15 91
e 15 92
e 15 97
e 16 21
e 16 22
e 16 25
e 16 28
e 16 29
e 16 32
e 16 34
e 16 36
e 16 41
e 16 43
e 16 44
e 16 45
e 16 46
e 16 49
e 16 50
e 16 51
e 16 52
e 16 53
e 16 54
e 16 55
e 16 60
e 16 61
e 16 66
e 16 67
e 16 71
e 16 75
e 16 76
e 16 77
e 16 78
e 16 81
e 16 83
e 16 84
e 16 87
e 16 88
e 16 89
e 16 90
e 16 92
e 16 93
e 16 94
e 16 95
e 16 96
e 17 21
e 17 22
e 17 25
e 17 31
e 17 36
e 17 38
e 17 39
e 17 40
e 17 42
e 17 44
e 17 46
e 17 48
e 17 49
e 17 50
e 17 56
e 17 69
e 17 70
e 17 71
e 17 72
e 17 73
e 17 75
e 17 77
e 17 79
e 17 80
e 17 81
e 17 87
e 17 91
e 17 92
e 17 97
e 17 98
e 17 100
e 18 21
e 18 23
e 18 24
e 18 26
e 18 31
e 18 32
e 18 33
e 18 38
e 18 39
e 18 41
e 18 42
e 18 46
e 18 47
e 18 48
e 18 49
e 18 56
e 18 57
e 18 59
e 18 63
e 18 64
e 18 65
e 18 67
e 18 68
e 18 73
e 18 77
e 18 78
e 18 79
e 18 80
e 18 81
e 18 82
e 18 83
e 18 84
e 18 85
e 18 86
e 18 93
e 18 94
e 18 96
e 18 97
e 18 98
e 18 99
e 18 100
e 19 21
e 19 22
e 19 23
e 19 24
e 19 25
e 19 28
e 19 29
e 19 30
e 19 32
e 19 33
e 19 34
e 19 35
e 19 37
e 19 38
e 19 39
e 19 40
e 19 42
e 19 46
e 19 47
e 19 49
e 19 50
e 19 53
e 19 54
e 19 55
e 19 59
e 19 61
e 19 63
e 19 65
e 19 69
e 19 71
e 19 73
e 19 74
e 19 75
e 19 80
e 19 82
e 19 83
e 19 84
e 19 86
e 19 87
e 19 90
e 19 93
e 19 94
e 19 95
e 19 98
e 20 21
e 20 22
e 20 25
e 20 27
e 20 30
e 20 31
e 20 32
e 20 33
e 20 34
e 20 37
e 20 38
e 20 39
e 20 40
e 20 41
e 20 44
e 20 45
e 20 46
e 20 48
e 20 49
e 20 50
e 20 51
e 20 52
e 20 55
e 20 56
e 20 58
e 20 59
e 20 60
e 20 61
e 20 64
e 20 67
e 20 68
e 20 69
e 20 70
e 20 71
e 20 72
e 20 76
e 20 77
e 20 78
e 20 88
e 20 89
e 20 92
e 20 94
e 20 96
e 20 98
e 20 99
e 21 43
e 21 44
e 21 45
e 21 46
e 21 52
e 21 54
e 21 56
e 21 57
e 21 59
e 21 61
e 21 63
e 21 64
e 21 65
e 21 67
e 21 69
e 21 73
e 21 76
e 21 77
e 21 78
e 21 80
e 21 81
e 21 85
e 21 87
e 21 88
e 21 89
e 21 93
e 21 94
e 21 97
e 21 99
e 21 100
e 22 42
e 22 44
e 22 45
e 22 47
e 22 48
e 22 49
e 22 51
e 22 52
e 22 53
e 22 54
e 22 55
e 22 56
e 22 59
e 22 62
e 22 72
e 22 75
e 22 80
e 22 86
e 22 87
e 22 88
e 22 90
e 22 92
e 22 93
e 22 94
e 22 96
e 22 97
e 22 98
e 22 99
e 23 41
e 23 47
e 23 49
e 23 50
e 23 53
e 23 55
e 23 58
e 23 59
e 23 65
e 23 66
e 23 67
e 23 68
e 23 71
e 23 74
e 23 78
e 23 81
e 23 82
e 23 83
e 23 85
e 23 86
e 23 87
e 23 88
e 23 90
e 23 92
e 23 95
e 23 98
e 23 99
e 23 100
e 24 42
e 24 48
e 24 49
e 24 50
e 24 51
e 24 52
e 24 54
e 24 59
e 24 61
e 24 63
e 24 64
e 24 66
e 24 67
e 24 68
e 24 71
e 24 72
e 24 73
e 24 74
e 24 75
e 24 76
e 24 77
e 24 78
e 24 83
e 24 86
e 24 87
e 24 88
e 24 90
e 24 93
e 24 95
e 24 100
e 25 42
e 25 43
e 25 44
e 25 49
e 25 50
e 25 54
e 25 55
e 25 56
e 25 60
e 25 61
e 25 64
e 25 65
e 25 66
e 25 68
e 25 69
e 25 70
e 25 74
e 25 75
e 25 76
e 25 79
e 25 80
e 25 81
e 25 83
e 25 86
e 25 88
e 25 90
e 25 91
e 25 93
e 25 98
e 25 100
e 26 41
e 26 42
e 26 43
e 26 44
e 26 45
e 26 46
e 26 47
e 26 51
e 26 52
e 26 53
e 26 56
e 26 59
e 26 63
e 26 64
e 26 66
e 26 69
e 26 70
e 26 72
e 26 73
e 26 74
e 26 75
e 26 77
e 26 78
e 26 79
e 26 81
e 26 82
e 26 84
e 26 86
e 26 87
e 26 88
e 26 89
e 26 93
e 26 94
e 26 100
e 27 43
e 27 44
e 27 47
e 27 48
e 27 49
e 27 50
e 27 51
e 27 52
e 27 53
e 27 54
e 27 55
e 27 57
e 27 58
e 27 59
e 27 60
e 27 61
e 27 62
e 27 64
e 27 65
e 27 67
e 27 70
e 27 71
e 27 72
e 27 74
e 27 76
e 27 88
e 27 92
e 27 93
e 27 96
e 27 98
e 27 100
e 28 44
e 28 46
e 28 53
e 28 55
e 28 58
e 28 60
e 28 63
e 28 64
e 28 65
e 28 66
e 28 67
e 28 68
e 28 72
e 28 74
e 28 81
e 28 88
e 28 89
e 28 90
e 28 91
e 28 94
e 28 98
e 28 100
e 29 41
e 29 42
e 29 43
e 29 44
e 29 46
e 29 47
e 29 48
e 29 53
e 29 54
e 29 56
e 29 57
e 29 60
e 29 61
e 29 63
e 29 65
e 29 66
e 29 67
e 29 68
e 29 70
e 29 72
e 29 74
e 29 75
e 29 79
e 29 82
e 29 83
e 29 87
e 29 89
e 29 90
e 29 91
e 29 96
e 29 98
e 29 99
e 30 42
e 30 43
e 30 44
e 30 46
e 30 47
e 30 50
e 30 52
e 30 54
e 30 59
e 30 63
e 30 64
e 30 65
e 30 66
e 30 68
e 30 70
e 30 71
e 30 72
e 30 73
e 30 74
e 30 77
e 30 78
e 30 79
e 30 81
e 30 84
e 30 85
e 30 86
e 30 88
e 30 89
e 30 91
e 30 96
e 30 97
e 30 98
e 30 99
e 30 100
e 31 41
e 31 43
e 31 44
e 31 45
e 31 47
e 31 48
e 31 49
e 31 52
e 31 53
e 31 56
e 31 57
e 31 58
e 31 59
e 31 61
e 31 62
e 31 67
e 31 70
e 31 71
e 31 73
e 31 75
e 31 78
e 31 80
e 31 81
e 31 82
e 31 87
e 31 89
e 31 91
e 31 92
e 31 94
e 31 96
e 31 97
e 31 98
e 31 100
e 32 41
e 32 42
e 32 44
e 32 45
e 32 47
e 32 50
e 32 52
e 32 53
e 32 54
e 32 56
e 32 60
e 32 61
e 32 62
e 32 63
e 32 65
e 32 67
e 32 68
e 32 69
e 32 70
e 32 71
e 32 75
e 32 78
e 32 81
e 32 83
e 32 90
e 32 92
e 32 93
e 32 95
e 32 96
e 32 100
e 33 41
e 33 42
e 33 43
e 33 48
e 33 52
e 33 54
e 33 59
e 33 60
e 33 61
e 33 63
e 33 65
e 33 67
e 33 70
e 33 71
e 33 72
e 33 73
e 33 74
e 33 77
e 33 78
e 33 80
e 33 88
e 33 90
e 33 91
e 33 92
e 33 100
e 34 42
e 34 43
e 34 46
e 34 49
e 34 51
e 34 52
e 34 53
e 34 55
e 34 56
e 34 59
e 34 60
e 34 61
e 34 63
e 34 69
e 34 73
e 34 77
e 34 78
e 34 79
e 34 80
e 34 81
e 34 86
e 34 89
e 34 90
e 34 91
e 34 92
e 34 95
e 34 96
e 34 99
e 35 42
e 35 43
e 35 48
e 35 49
e 35 52
e 35 55
e 35 57
e 35 58
e 35 60
e 35 62
e 35 64
e 35 65
e 35 66
e 35 67
e 35 68
e 35 70
e 35 75
e 35 76
e 35 77
e 35 78
e 35 80
e 35 82
e 35 83
e 35 86
e 35 87
e 35 89
e 35 91
e 35 92
e 35 93
e 35 95
e 35 96
e 35 97
e 35 98
e 35 99
e 35 100
e 36 42
e 36 44
e 36 47
e 36 48
e 36 50
e 36 51
e 36 53
e 36 55
e 36 58
e 36 59
e 36 60
e 36 63
e 36 65
e 36 66
e 36 68
e 36 69
e 36 70
e 36 71
e 36 72
e 36 73
e 36 76
e 36 78
e 36 79
e 36 80
e 36 81
e 36 83
e 36 85
e 36 89
e 36 91
e 36 93
e 36 94
e 36 95
e 36 96
e 36 98
e 36 99
e 36 100
e 37 43
e 37 45
e 37 47
e 37 48
e 37 49
e 37 52
e 37 53
e 37 56
e 37 57
e 37 59
e 37 61
e 37 63
e 37 64
e 37 69
e 37 70
e 37 73
e 37 75
e 37 78
e 37 79
e 37 81
e 37 82
e 37 83
e 37 84
e 37 86
e 37 89
e 37 92
e 37 96
e 37 100
e 38 41
e 38 42
e 38 43
e 38 45
e 38 46
e 38 47
e 38 48
e 38 49
e 38 52
e 38 53
e 38 55
e 38 58
e 38 59
e 38 63
e 38 64
e 38 65
e 38 69
e 38 70
e 38 75
e 38 76
e 38 81
e 38 84
e 38 85
e 38 87
e 38 88
e 38 90
e 38 95
e 38 96
e 39 41
e 39 44
e 39 47
e 39 48
e 39 49
e 39 50
e 39 51
e 39 53
e 39 54
e 39 55
e 39 57
e 39 59
e 39 61
e 39 64
e 39 65
e 39 67
e 39 68
e 39 69
e 39 70
e 39 72
e 39 73
e 39 78
e 39 84
e 39 85
e 39 88
e 39 89
e 39 92
e 39 93
e 39 96
e 39 97
e 39 98
e 39 100
e 40 41
e 40 45
e 40 46
e 40 47
e 40 49
e 40 50
e 40 53
e 40 54
e 40 55
e 40 58
e 40 63
e 40 67
e 40 68
e 40 71
e 40 72
e 40 74
e 40 76
e 40 78
e 40 80
e 40 85
e 40 86
e 40 91
e 40 93
e 40 95
e 40 99
e 41 61
e 41 63
e 41 64
e 41 65
e 41 68
e 41 69
e 41 70
e 41 71
e 41 72
e 41 73
e 41 80
e 41 83
e 41 84
e 41 87
e 41 89
e 41 90
e 41 91
e 41 94
e 41 99
e 41 100
e 42 61
e 42 62
e 42 63
e 42 64
e 42 65
e 42 67
e 42 69
e 42 70
e 42 73
e 42 74
e 42 76
e 42 77
e 42 79
e 42 82
e 42 84
e 42 86
e 42 87
e 42 88
e 42 89
e 42 90
e 42 91
e 42 92
e 42 94
e 42 95
e 42 97
e 42 100
e 43 65
e 43 68
e 43 69
e 43 71
e 43 72
e 43 73
e 43 75
e 43 76
e 43 78
e 43 79
e 43 80
e 43 82
e 43 83
e 43 84
e 43 85
e 43 86
e 43 87
e 43 89
e 43 91
e 43 94
e 43 95
e 43 97
e 43 98
e 43 99
e 44 66
e 44 67
e 44 69
e 44 70
e 44 72
e 44 76
e 44 77
e 44 78
e 44 79
e 44 80
e 44 81
e 44 84
e 44 86
e 44 87
e 44 88
e 44 89
e 44 90
e 44 91
e 44 93
e 44 94
e 44 95
e 44 96
e 44 97
e 44 98
e 45 63
e 45 66
e 45 69
e 45 73
e 45 77
e 45 78
e 45 81
e 45 82
e 45 85
e 45 88
e 45 91
e 45 93
e 45 94
e 45 96
e 46 62
e 46 63
e 46 67
e 46 69
e 46 71
e 46 73
e 46 79
e 46 80
e 46 82
e 46 87
e 46 90
e 46 93
e 46 95
e 46 96
e 46 97
e 46 98
e 46 99
e 47 62
e 47 63
e 47 64
e 47 66
e 47 68
e 47 70
e 47 72
e 47 73
e 47 76
e 47 78
e 47 84
e 47 85
e 47 86
e 47 88
e 47 89
e 47 90
e 47 93
e 47 94
e 47 96
e 47 99
e 48 61
e 48 62
e 48 63
e 48 64
e 48 66
e 48 67
e 48 69
e 48 70
e 48 71
e 48 75
e 48 76
e 48 80
e 48 81
e 48 84
e 48 85
e 48 86
e 48 90
e 48 91
e 48 92
e 48 94
e 48 95
e 48 96
e 49 61
e 49 63
e 49 64
e 49 66
e 49 67
e 49 68
e 49 69
e 49 75
e 49 77
e 49 78
e 49 79
e 49 82
e 49 83
e 49 84
e 49 85
e 49 88
e 49 93
e 49 94
e 49 95
e 49 96
e 49 97
e 49 100
e 50 61
e 50 62
e 50 64
e 50 65
e 50 67
e 50 68
e 50 70
e 50 73
e 50 75
e 50 76
e 50 78
e 50 79
e 50 82
e 50 85
e 50 88
e 50 89
e 50 90
e 50 91
e 50 92
e 50 93
e 50 94
e 50 96
e 50 99
e 50 100
e 51 61
e 51 63
e 51 66
e 51 73
e 51 75
e 51 77
e 51 78
e 51 80
e 51 81
e 51 83
e 51 85
e 51 86
e 51 87
e 51 92
e 51 93
e 51 96
e 51 98
e 51 99
e 52 65
e 52 66
e 52 67
e 52 68
e 52 69
e 52 70
e 52 72
e 52 73
e 52 76
e 52 84
e 52 85
e 52 88
e 52 89
e 52 91
e 52 92
e 52 93
e 52 96
e 52 97
e 53 63
e 53 67
e 53 68
e 53 69
e 53 71
e 53 72
e 53 76
e 53 78
e 53 79
e 53 80
e 53 83
e 53 85
e 53 86
e 53 89
e 53 91
e 53 93
e 53 94
e 53 95
e 53 97
e 53 100
e 54 61
e 54 62
e 54 63
e 54 64
e 54 65
e 54 66
e 54 69
e 54 71
e 54 72
e 54 75
e 54 79
e 54 80
e 54 83
e 54 85
e 54 87
e 54 88
e 54 90
e 54 92
e 54 93
e 54 94
e 54 97
e 54 99
e 55 61
e 55 62
e 55 64
e 55 65
e 55 66
e 55 67
e 55 68
e 55 70
e 55 75
e 55 76
e 55 79
e 55 80
e 55 83
e 55 84
e 55 85
e 55 86
e 55 88
e 55 89
e 55 93
e 55 94
e 55 95
e 55 97
e 56 66
e 56 67
e 56 70
e 56 72
e 56 73
e 56 76
e 56 77
e 56 78
e 56 81
e 56 82
e 56 84
e 56 87
e 56 89
e 56 95
e 57 64
e 57 69
e 57 70
e 57 72
e 57 74
e 57 75
e 57 77
e 57 78
e 57 80
e 57 83
e 57 84
e 57 86
e 57 88
e 57 90
e 57 91
e 57 93
e 57 96
e 58 67
e 58 70
e 58 73
e 58 75
e 58 77
e 58 78
e 58 79
e 58 80
e 58 81
e 58 84
e 58 86
e 58 87
e 58 88
e 58 90
e 58 91
e 58 92
e 58 95
e 58 98
e 58 99
e 58 100
e 59 66
e 59 67
e 59 68
e 59 70
e 59 71
e 59 72
e 59 73
e 59 74
e 59 76
e 59 78
e 59 85
e 59 88
e 59 90
e 59 91
e 59 92
e 59 94
e 59 95
e 59 97
e 60 62
e 60 64
e 60 66
e 60 67
e 60 68
e 60 69
e 60 71
e 60 72
e 60 73
e 60 76
e 60 77
e 60 79
e 60 81
e 60 82
e 60 86
e 60 90
e 60 92
e 60 93
e 60 95
e 60 97
e 60 100
e 61 83
e 61 84
e 61 86
e 61 88
e 61 92
e 61 93
e 61 99
e 62 81
e 62 84
e 62 85
e 62 86
e 62 88
e 62 90
e 62 91
e 62 93
e 62 95
e 62 97
e 62 98
e 62 99
e 62 100
e 63 81
e 63 82
e 63 83
e 63 84
e 63 85
e 63 86
e 63 87
e 63 88
e 63 89
e 63 93
e 63 96
e 63 98
e 63 99
e 63 100
e 64 81
e 64 82
e 64 84
e 64 85
e 64 86
e 64 87
e 64 89
e 64 91
e 64 92
e 64 93
e 64 95
e 64 96
e 64 98
e 65 82
e 65 85
e 65 87
e 65 89
e 65 91
e 65 94
e 65 97
e 66 81
e 66 83
e 66 84
e 66 86
e 66 87
e 66 89
e 66 90
e 66 92
e 66 93
e 66 94
e 66 95
e 66 97
e 66 98
e 66 99
e 66 100
e 67 81
e 67 84
e 67 85
e 67 86
e 67 87
e 67 88
e 67 89
e 67 90
e 67 91
e 67 95
e 67 97
e 67 98
e 67 99
e 67 100
e 68 83
e 68 84
e 68 85
e 68 87
e 68 91
e 68 95
e 68 96
e 68 97
e 68 99
e 68 100
e 69 82
e 69 84
e 69 86
e 69 89
e 69 91
e 69 94
e 69 97
e 69 100
e 70 83
e 70 84
e 70 85
e 70 86
e 70 87
e 70 94
e 70 97
e 70 98
e 70 99
e 70 100
e 71 83
e 71 85
e 71 91
e 71 92
e 71 97
e 71 98
e 71 99
e 71 100
e 72 82
e 72 83
e 72 84
e 72 89
e 72 90
e 72 92
e 72 93
e 72 94
e 72 96
e 72 98
e 73 83
e 73 87
e 73 90
e 73 91
e 73 92
e 73 93
e 73 94
e 73 95
e 73 97
e 73 99
e 74 82
e 74 84
e 74 87
e 74 88
e 74 89
e 74 90
e 74 91
e 74 92
e 74 93
e 74 95
e 74 98
e 74 100
e 75 85
e 75 87
e 75 88
e 75 89
e 75 90
e 75 91
e 75 92
e 75 95
e 75 98
e 75 99
e 76 81
e 76 82
e 76 83
e 76 85
e 76 86
e 76 87
e 76 92
e 76 93
e 76 95
e 76 98
e 76 99
e 76 100
e 77 81
e 77 82
e 77 83
e 77 87
e 77 88
e 77 93
e 77 95
e 77 96
e 77 98
e 77 99
e 77 100
e 78 81
e 78 84
e 78 86
e 78 87
e 78 88
e 78 89
e 78 90
e 78 91
e 78 93
e 78 95
e 78 97
e 78 98
e 78 100
e 79 84
e 79 95
e 79 98
e 79 99
e 79 100
e 80 82
e 80 84
e 80 85
e 80 86
e 80 88
e 80 89
e 80 90
e 80 91
e 80 92
e 80 93
e 80 94
e 80 95
e 80 96
e 80 97
e 80 98
