c FILE: balanced_graphs/balanced_140_7_10_3.col
c
c DESCRIPTION: Random balanced graph, 140 nodes,
c              partitions 7
c              edge probability 0.1
c
c G(140,7,0.1) graph
c number of vertices : 140
c max number of edges: 9730
c edge probability   : 0.1
c
c           Graph Stats
c number of vertices  : 140
c nonisolated vertices: 140
c number of edges     : 836
c edge density        : 0.0859
c max degree          : 21
c avg degree          : 11.94
c min degree          : 4
c
p col 140 836
e 1 47
e 1 55
e 1 57
e 1 71
e 1 73
e 1 76
e 1 80
e 1 96
e 1 109
e 1 118
e 1 135
e 2 27
e 2 34
e 2 40
e 2 41
e 2 42
e 2 46
e 2 49
e 2 61
e 2 63
e 2 68
e 2 75
e 2 82
e 2 84
e 2 88
e 2 90
e 2 92
e 2 106
e 2 125
e 3 49
e 3 51
e 3 82
e 3 105
e 3 108
e 3 111
e 3 118
e 3 129
e 4 25
e 4 41
e 4 81
e 4 84
e 4 90
e 4 95
e 4 96
e 4 100
e 4 103
e 4 138
e 5 23
e 5 24
e 5 50
e 5 61
e 5 66
e 5 74
e 5 88
e 5 99
e 5 105
e 5 124
e 5 136
e 6 28
e 6 37
e 6 63
e 6 74
e 6 77
e 6 88
e 6 98
e 6 103
e 6 114
e 6 121
e 6 133
e 6 134
e 7 32
e 7 33
e 7 39
e 7 53
e 7 55
e 7 75
e 7 81
e 7 82
e 7 84
e 7 90
e 7 97
e 7 126
e 7 131
e 7 136
e 8 27
e 8 51
e 8 68
e 8 71
e 8 72
e 8 73
e 8 92
e 8 98
e 8 106
e 8 107
e 8 116
e 8 117
e 8 126
e 8 129
e 8 138
e 8 140
e 9 25
e 9 42
e 9 56
e 9 61
e 9 68
e 9 69
e 9 73
e 9 75
e 9 79
e 9 86
e 9 117
e 9 120
e 9 124
e 9 129
e 10 31
e 10 42
e 10 45
e 10 62
e 10 64
e 10 85
e 10 90
e 10 98
e 10 110
e 11 33
e 11 39
e 11 47
e 11 48
e 11 61
e 11 83
e 11 88
e 11 102
e 11 125
e 12 21
e 12 32
e 12 43
e 12 69
e 12 87
e 12 89
e 12 114
e 12 117
e 12 123
e 12 130
e 12 137
e 12 140
e 13 32
e 13 47
e 13 52
e 13 53
e 13 70
e 13 71
e 13 78
e 13 79
e 13 81
e 13 96
e 13 101
e 13 116
e 13 118
e 13 131
e 14 24
e 14 37
e 14 39
e 14 48
e 14 59
e 14 76
e 14 77
e 14 97
e 14 99
e 14 101
e 14 117
e 14 137
e 14 138
e 15 36
e 15 47
e 15 57
e 15 58
e 15 72
e 15 77
e 15 86
e 15 95
e 15 127
e 15 135
e 16 27
e 16 28
e 16 30
e 16 37
e 16 44
e 16 54
e 16 62
e 16 63
e 16 77
e 16 79
e 16 82
e 16 83
e 16 100
e 16 118
e 16 129
e 16 131
e 16 132
e 17 47
e 17 63
e 17 67
e 17 68
e 17 101
e 17 119
e 17 127
e 17 133
e 17 134
e 17 140
e 18 24
e 18 28
e 18 33
e 18 42
e 18 46
e 18 61
e 18 83
e 18 88
e 18 91
e 18 122
e 18 127
e 18 139
e 19 35
e 19 64
e 19 67
e 19 71
e 19 77
e 19 85
e 19 105
e 19 119
e 19 121
e 19 133
e 19 139
e 20 32
e 20 41
e 20 50
e 20 53
e 20 55
e 20 68
e 20 78
e 20 79
e 20 94
e 20 106
e 20 118
e 20 126
e 20 127
e 20 128
e 20 133
e 21 50
e 21 65
e 21 71
e 21 72
e 21 79
e 21 85
e 21 87
e 21 92
e 21 102
e 21 111
e 21 116
e 21 122
e 21 124
e 21 131
e 22 42
e 22 94
e 22 100
e 22 103
e 22 108
e 22 113
e 22 114
e 22 117
e 22 123
e 22 126
e 22 129
e 23 44
e 23 60
e 23 80
e 23 111
e 23 113
e 23 115
e 23 130
e 23 134
e 24 45
e 24 47
e 24 48
e 24 64
e 24 70
e 24 78
e 24 81
e 24 87
e 24 95
e 24 110
e 25 42
e 25 45
e 25 50
e 25 61
e 25 63
e 25 64
e 25 72
e 25 78
e 25 82
e 25 88
e 25 92
e 25 98
e 25 105
e 25 106
e 25 116
e 25 119
e 25 126
e 25 135
e 25 140
e 26 48
e 26 52
e 26 69
e 26 72
e 26 85
e 26 91
e 26 122
e 26 124
e 26 140
e 27 62
e 27 67
e 27 85
e 27 89
e 27 92
e 27 100
e 27 107
e 27 114
e 27 138
e 28 41
e 28 46
e 28 67
e 28 73
e 28 75
e 28 77
e 28 88
e 28 99
e 28 113
e 28 118
e 28 126
e 28 138
e 29 44
e 29 55
e 29 82
e 29 90
e 29 91
e 29 96
e 29 104
e 29 106
e 29 112
e 30 47
e 30 61
e 30 67
e 30 71
e 30 83
e 30 89
e 30 90
e 30 106
e 30 111
e 31 53
e 31 59
e 31 69
e 31 72
e 31 89
e 31 96
e 32 44
e 32 64
e 32 82
e 32 84
e 32 91
e 32 94
e 32 114
e 32 132
e 33 50
e 33 53
e 33 61
e 33 64
e 33 78
e 33 96
e 33 99
e 33 106
e 33 122
e 33 127
e 33 128
e 34 61
e 34 79
e 34 81
e 34 84
e 34 93
e 34 94
e 34 110
e 35 62
e 35 67
e 35 70
e 35 73
e 35 81
e 35 93
e 35 115
e 35 117
e 35 132
e 35 137
e 36 46
e 36 72
e 36 73
e 36 75
e 36 76
e 36 102
e 36 105
e 36 110
e 36 120
e 36 128
e 36 129
e 37 56
e 37 65
e 37 77
e 37 81
e 37 84
e 37 105
e 37 124
e 37 134
e 37 138
e 37 139
e 38 41
e 38 64
e 38 71
e 38 82
e 38 89
e 38 110
e 38 127
e 39 57
e 39 59
e 39 60
e 39 74
e 39 77
e 39 82
e 39 93
e 39 95
e 39 98
e 39 101
e 39 107
e 39 121
e 39 132
e 39 133
e 39 134
e 39 136
e 39 138
e 40 48
e 40 56
e 40 61
e 40 69
e 40 71
e 40 73
e 40 90
e 40 99
e 40 106
e 40 107
e 40 110
e 40 126
e 40 132
e 40 134
e 40 135
e 40 136
e 40 139
e 41 72
e 41 84
e 41 115
e 41 116
e 41 121
e 41 138
e 42 67
e 42 81
e 42 93
e 42 107
e 42 118
e 42 128
e 42 133
e 43 93
e 43 97
e 43 125
e 43 126
e 43 130
e 43 135
e 44 63
e 44 77
e 44 82
e 44 112
e 44 114
e 44 122
e 45 63
e 45 65
e 45 68
e 45 83
e 45 86
e 45 92
e 45 98
e 45 110
e 46 91
e 46 94
e 46 103
e 46 105
e 46 114
e 47 64
e 47 74
e 47 76
e 47 108
e 47 117
e 47 119
e 47 125
e 47 127
e 47 129
e 47 137
e 48 77
e 48 80
e 48 83
e 48 86
e 48 104
e 48 133
e 48 138
e 49 63
e 49 66
e 49 68
e 49 70
e 49 72
e 49 76
e 49 83
e 49 108
e 49 131
e 49 136
e 50 66
e 50 77
e 50 88
e 50 90
e 50 98
e 50 99
e 50 104
e 50 112
e 51 77
e 51 88
e 51 91
e 51 96
e 51 104
e 51 118
e 52 61
e 52 62
e 52 75
e 52 81
e 52 85
e 52 99
e 52 111
e 52 120
e 52 121
e 52 134
e 52 135
e 52 137
e 52 140
e 53 82
e 53 93
e 53 94
e 53 98
e 53 109
e 53 113
e 53 124
e 53 137
e 54 76
e 54 91
e 54 97
e 54 116
e 54 121
e 54 123
e 55 77
e 55 89
e 55 111
e 55 112
e 55 120
e 55 132
e 56 66
e 56 68
e 56 79
e 56 82
e 56 101
e 56 106
e 56 112
e 56 130
e 57 67
e 57 80
e 57 96
e 57 97
e 57 133
e 58 69
e 58 70
e 58 72
e 58 88
e 58 105
e 58 125
e 58 126
e 58 133
e 59 61
e 59 78
e 59 85
e 59 103
e 59 111
e 59 120
e 59 128
e 59 130
e 59 133
e 60 76
e 60 80
e 60 82
e 60 84
e 60 86
e 60 91
e 60 98
e 60 101
e 60 107
e 60 122
e 60 134
e 61 94
e 61 95
e 61 103
e 61 122
e 62 102
e 62 105
e 62 118
e 63 90
e 63 101
e 63 117
e 63 124
e 63 129
e 64 82
e 64 95
e 64 99
e 64 108
e 64 109
e 64 113
e 64 114
e 64 126
e 64 128
e 64 131
e 64 138
e 65 86
e 65 96
e 65 102
e 65 115
e 66 82
e 66 107
e 66 121
e 67 85
e 67 102
e 67 109
e 67 124
e 67 126
e 68 87
e 68 97
e 68 100
e 68 111
e 68 115
e 68 120
e 68 128
e 68 132
e 68 140
e 69 113
e 69 128
e 69 130
e 69 132
e 69 134
e 70 98
e 70 100
e 70 102
e 70 105
e 70 110
e 70 120
e 70 128
e 70 135
e 71 86
e 71 93
e 71 105
e 71 115
e 71 137
e 72 83
e 72 89
e 72 100
e 72 112
e 72 115
e 72 124
e 73 82
e 73 85
e 73 101
e 73 104
e 73 107
e 73 115
e 73 121
e 73 128
e 74 96
e 74 139
e 75 83
e 75 98
e 75 102
e 75 120
e 75 129
e 75 133
e 75 137
e 75 138
e 76 82
e 76 83
e 76 91
e 76 93
e 76 95
e 76 106
e 76 118
e 76 127
e 76 132
e 77 88
e 77 94
e 77 108
e 77 109
e 77 120
e 77 126
e 77 127
e 77 128
e 78 101
e 78 115
e 78 128
e 78 131
e 78 132
e 78 140
e 79 86
e 79 94
e 79 100
e 79 103
e 79 132
e 80 81
e 80 82
e 80 107
e 80 125
e 80 136
e 81 109
e 81 112
e 81 118
e 81 120
e 81 133
e 82 113
e 82 135
e 82 137
e 83 105
e 83 119
e 83 137
e 84 106
e 84 108
e 84 125
e 84 132
e 85 105
e 85 125
e 85 129
e 85 130
e 85 136
e 85 138
e 86 135
e 87 124
e 87 135
e 88 109
e 88 123
e 88 128
e 88 133
e 89 118
e 89 133
e 89 135
e 89 140
e 90 114
e 90 116
e 90 125
e 91 115
e 91 121
e 91 136
e 91 137
e 91 140
e 92 101
e 92 110
e 93 120
e 93 125
e 93 131
e 94 125
e 94 130
e 95 106
e 95 108
e 96 112
e 96 116
e 96 124
e 96 136
e 97 103
e 97 112
e 97 122
e 97 125
e 97 139
e 98 108
e 98 116
e 98 122
e 98 131
e 98 136
e 99 109
e 99 137
e 100 127
e 101 124
e 101 135
e 102 122
e 102 125
e 102 131
e 102 136
e 103 122
e 103 129
e 103 133
e 103 135
e 105 128
e 105 130
e 106 126
e 106 132
e 107 133
e 108 126
e 108 129
e 108 131
e 109 128
e 109 137
e 109 138
e 110 127
e 110 137
e 110 140
e 111 122
e 112 129
e 115 137
e 115 139
e 116 122
e 116 125
e 116 127
e 117 129
e 117 132
e 117 137
e 118 129
e 119 132
e 120 130
e 120 136
