c FILE: balanced_graphs/balanced_140_7_10_2.col
c
c DESCRIPTION: Random balanced graph, 140 nodes,
c              partitions 7
c              edge probability 0.1
c
c G(140,7,0.1) graph
c number of vertices : 140
c max number of edges: 9730
c edge probability   : 0.1
c
c           Graph Stats
c number of vertices  : 140
c nonisolated vertices: 140
c number of edges     : 837
c edge density        : 0.0860
c max degree          : 21
c avg degree          : 11.96
c min degree          : 5
c
p col 140 837
e 1 21
e 1 32
e 1 51
e 1 53
e 1 57
e 1 59
e 1 76
e 1 77
e 1 78
e 1 82
e 1 96
e 1 97
e 1 105
e 1 107
e 1 115
e 1 126
e 1 127
e 1 139
e 2 26
e 2 35
e 2 40
e 2 46
e 2 50
e 2 51
e 2 90
e 2 94
e 2 104
e 2 107
e 2 109
e 2 120
e 2 124
e 3 67
e 3 88
e 3 94
e 3 101
e 3 104
e 3 109
e 3 110
e 3 116
e 3 136
e 4 35
e 4 49
e 4 53
e 4 55
e 4 57
e 4 67
e 4 72
e 4 73
e 4 77
e 4 94
e 4 98
e 4 104
e 4 127
e 5 28
e 5 35
e 5 36
e 5 45
e 5 84
e 5 90
e 5 131
e 5 138
e 6 50
e 6 59
e 6 75
e 6 76
e 6 77
e 6 79
e 6 81
e 6 91
e 6 103
e 6 110
e 6 126
e 6 127
e 6 138
e 7 40
e 7 48
e 7 76
e 7 78
e 7 99
e 7 101
e 7 118
e 7 122
e 8 28
e 8 39
e 8 41
e 8 60
e 8 68
e 8 76
e 8 78
e 8 79
e 8 82
e 8 91
e 8 101
e 8 111
e 9 26
e 9 37
e 9 54
e 9 60
e 9 68
e 9 70
e 9 87
e 9 104
e 9 125
e 9 131
e 9 139
e 10 42
e 10 66
e 10 83
e 10 95
e 10 99
e 10 114
e 10 119
e 11 30
e 11 50
e 11 56
e 11 58
e 11 66
e 11 74
e 11 75
e 11 86
e 11 88
e 11 94
e 11 111
e 11 135
e 11 136
e 12 24
e 12 38
e 12 58
e 12 61
e 12 74
e 12 83
e 12 85
e 12 109
e 12 117
e 12 124
e 12 136
e 13 30
e 13 61
e 13 76
e 13 96
e 13 98
e 13 119
e 13 123
e 13 124
e 13 127
e 13 130
e 13 135
e 13 136
e 14 23
e 14 27
e 14 37
e 14 71
e 14 83
e 14 128
e 14 131
e 15 26
e 15 28
e 15 45
e 15 52
e 15 70
e 15 80
e 15 82
e 15 83
e 15 84
e 15 99
e 15 120
e 15 124
e 15 134
e 16 34
e 16 47
e 16 59
e 16 63
e 16 65
e 16 71
e 16 77
e 16 85
e 16 114
e 16 126
e 16 127
e 17 33
e 17 50
e 17 56
e 17 58
e 17 59
e 17 70
e 17 93
e 17 101
e 17 108
e 17 117
e 18 24
e 18 28
e 18 33
e 18 37
e 18 44
e 18 53
e 18 54
e 18 66
e 18 68
e 18 78
e 18 89
e 18 97
e 18 103
e 18 105
e 18 116
e 18 119
e 18 133
e 19 30
e 19 41
e 19 43
e 19 47
e 19 54
e 19 57
e 19 74
e 19 76
e 19 77
e 19 79
e 19 86
e 19 87
e 19 96
e 19 103
e 19 105
e 19 115
e 19 120
e 19 121
e 19 124
e 19 131
e 19 138
e 20 22
e 20 25
e 20 38
e 20 45
e 20 57
e 20 77
e 20 101
e 20 102
e 20 103
e 20 105
e 20 128
e 20 137
e 21 45
e 21 57
e 21 59
e 21 79
e 21 119
e 21 126
e 21 137
e 22 49
e 22 54
e 22 58
e 22 67
e 22 69
e 22 71
e 22 78
e 22 82
e 22 84
e 22 85
e 22 89
e 22 102
e 22 104
e 22 129
e 22 130
e 22 133
e 23 49
e 23 54
e 23 56
e 23 57
e 23 76
e 23 79
e 23 80
e 23 83
e 23 108
e 23 121
e 23 133
e 23 139
e 24 42
e 24 46
e 24 53
e 24 65
e 24 84
e 24 97
e 24 107
e 24 124
e 24 128
e 24 131
e 24 140
e 25 44
e 25 61
e 25 69
e 25 76
e 25 88
e 25 105
e 25 107
e 25 110
e 25 123
e 25 129
e 25 132
e 25 134
e 25 136
e 26 59
e 26 67
e 26 80
e 26 108
e 26 110
e 27 46
e 27 50
e 27 58
e 27 68
e 27 74
e 27 78
e 27 80
e 27 88
e 27 92
e 27 100
e 27 101
e 27 111
e 27 131
e 27 132
e 27 138
e 27 140
e 28 75
e 28 99
e 28 104
e 28 113
e 28 121
e 28 136
e 29 44
e 29 47
e 29 61
e 29 69
e 29 86
e 29 89
e 29 90
e 29 114
e 29 120
e 29 131
e 29 137
e 30 42
e 30 55
e 30 62
e 30 65
e 30 80
e 30 86
e 30 98
e 30 101
e 30 110
e 30 123
e 30 125
e 30 135
e 30 139
e 30 140
e 31 50
e 31 53
e 31 56
e 31 66
e 31 130
e 32 42
e 32 44
e 32 46
e 32 48
e 32 54
e 32 67
e 32 68
e 32 71
e 32 73
e 32 78
e 32 86
e 32 88
e 32 95
e 32 101
e 32 125
e 32 130
e 32 136
e 32 138
e 33 49
e 33 96
e 33 113
e 33 128
e 34 41
e 34 62
e 34 67
e 34 72
e 34 79
e 34 80
e 34 87
e 34 91
e 34 112
e 34 119
e 34 128
e 35 43
e 35 74
e 35 77
e 35 78
e 35 94
e 35 95
e 35 105
e 35 134
e 36 42
e 36 43
e 36 44
e 36 59
e 36 83
e 36 91
e 36 107
e 36 108
e 36 114
e 36 115
e 36 117
e 36 122
e 36 132
e 37 47
e 37 51
e 37 65
e 37 79
e 37 80
e 37 121
e 37 125
e 37 128
e 37 135
e 38 45
e 38 46
e 38 51
e 38 53
e 38 63
e 38 69
e 38 101
e 38 105
e 38 109
e 38 120
e 39 42
e 39 47
e 39 57
e 39 62
e 39 64
e 39 70
e 39 96
e 39 118
e 39 131
e 39 136
e 40 51
e 40 97
e 40 116
e 40 122
e 40 137
e 40 140
e 41 64
e 41 77
e 41 84
e 41 107
e 41 126
e 41 127
e 41 140
e 42 72
e 42 83
e 42 97
e 42 106
e 42 115
e 42 121
e 42 123
e 42 127
e 42 128
e 42 138
e 42 140
e 43 70
e 43 73
e 43 78
e 43 93
e 43 105
e 43 139
e 44 61
e 44 66
e 44 72
e 44 78
e 44 88
e 44 115
e 45 68
e 45 69
e 45 72
e 45 73
e 45 91
e 45 99
e 45 102
e 45 109
e 45 113
e 45 124
e 45 126
e 46 69
e 46 92
e 46 94
e 46 96
e 46 106
e 46 108
e 46 119
e 46 130
e 46 136
e 47 82
e 47 85
e 47 89
e 47 93
e 47 99
e 47 121
e 47 134
e 48 68
e 48 69
e 48 72
e 48 92
e 48 98
e 48 110
e 48 123
e 48 124
e 49 65
e 49 76
e 49 83
e 49 106
e 49 116
e 49 134
e 50 69
e 50 76
e 50 77
e 50 99
e 50 106
e 50 112
e 50 124
e 50 128
e 50 133
e 51 66
e 51 79
e 51 140
e 52 67
e 52 72
e 52 79
e 52 91
e 52 97
e 52 106
e 52 107
e 52 112
e 52 137
e 53 73
e 53 75
e 53 79
e 53 81
e 53 82
e 53 106
e 53 110
e 53 121
e 53 122
e 53 123
e 54 69
e 54 88
e 54 89
e 54 110
e 54 118
e 55 64
e 55 68
e 55 80
e 55 84
e 55 85
e 55 90
e 55 99
e 55 100
e 55 102
e 55 104
e 55 113
e 55 118
e 55 137
e 56 97
e 56 103
e 56 106
e 56 108
e 56 110
e 56 131
e 56 135
e 57 62
e 57 76
e 57 85
e 57 91
e 57 101
e 57 108
e 57 114
e 57 117
e 57 119
e 57 131
e 57 138
e 58 63
e 58 68
e 58 80
e 58 86
e 58 87
e 58 90
e 58 111
e 58 118
e 58 136
e 58 137
e 59 63
e 59 93
e 59 97
e 59 111
e 59 112
e 59 125
e 59 126
e 59 131
e 59 134
e 60 69
e 60 97
e 60 99
e 60 102
e 60 103
e 60 105
e 60 108
e 60 122
e 60 123
e 60 128
e 60 132
e 61 83
e 61 88
e 61 89
e 61 94
e 61 102
e 61 115
e 62 82
e 62 92
e 62 127
e 62 129
e 62 134
e 63 88
e 63 90
e 63 109
e 63 121
e 63 123
e 63 126
e 63 130
e 63 135
e 64 85
e 64 87
e 64 113
e 64 120
e 65 83
e 65 87
e 65 89
e 65 99
e 65 112
e 65 118
e 65 122
e 66 90
e 66 92
e 66 99
e 66 100
e 66 117
e 66 140
e 67 93
e 67 94
e 67 126
e 67 132
e 68 99
e 68 121
e 69 82
e 69 83
e 69 92
e 69 96
e 69 98
e 69 119
e 70 116
e 70 119
e 70 123
e 70 135
e 70 140
e 71 88
e 71 92
e 71 96
e 71 132
e 71 133
e 72 95
e 72 97
e 72 101
e 72 104
e 72 124
e 72 135
e 72 138
e 73 99
e 74 83
e 74 90
e 74 109
e 74 110
e 74 120
e 74 127
e 74 129
e 74 134
e 75 90
e 75 114
e 75 116
e 75 118
e 75 127
e 76 87
e 76 94
e 76 97
e 76 98
e 76 109
e 76 117
e 76 135
e 77 96
e 77 105
e 77 113
e 77 115
e 77 116
e 77 118
e 77 135
e 77 140
e 78 85
e 78 93
e 78 109
e 78 110
e 78 124
e 78 138
e 79 85
e 79 88
e 79 116
e 79 123
e 79 134
e 80 82
e 80 97
e 80 99
e 80 105
e 80 112
e 80 115
e 80 124
e 80 128
e 80 130
e 80 132
e 81 109
e 81 110
e 81 116
e 82 115
e 82 126
e 82 128
e 83 104
e 83 118
e 83 136
e 84 119
e 84 128
e 85 102
e 85 105
e 85 107
e 85 108
e 85 119
e 85 132
e 85 138
e 86 104
e 87 104
e 87 106
e 87 111
e 87 121
e 88 101
e 88 117
e 88 133
e 89 109
e 89 122
e 89 123
e 90 104
e 90 109
e 90 122
e 90 123
e 91 108
e 91 109
e 91 112
e 92 102
e 92 111
e 92 127
e 92 135
e 92 139
e 92 140
e 94 109
e 94 110
e 94 115
e 94 120
e 95 108
e 95 115
e 95 121
e 95 122
e 95 125
e 95 127
e 95 137
e 96 123
e 96 127
e 97 103
e 97 113
e 97 114
e 97 140
e 98 106
e 98 108
e 98 111
e 98 121
e 98 125
e 99 116
e 99 124
e 99 128
e 100 111
e 100 133
e 101 123
e 102 121
e 103 123
e 103 131
e 103 133
e 105 126
e 105 138
e 106 125
e 106 129
e 106 131
e 106 133
e 106 138
e 107 125
e 108 132
e 109 126
e 110 122
e 110 140
e 111 122
e 111 125
e 111 126
e 111 128
e 111 129
e 112 123
e 112 133
e 113 126
e 114 121
e 114 134
e 115 121
e 115 125
e 116 126
e 116 131
e 116 134
e 117 122
e 117 132
e 117 134
e 118 124
e 118 137
e 119 121
e 119 137
e 120 123
e 120 132
