c FILE: balanced_graphs/balanced_60_3_25_5.col
c
c DESCRIPTION: Random balanced graph, 60 nodes,
c              partitions 3
c              edge probability 0.25
c
c G(60,3,0.25) graph
c number of vertices : 60
c max number of edges: 1770
c edge probability   : 0.25
c
c           Graph Stats
c number of vertices  : 60
c nonisolated vertices: 60
c number of edges     : 305
c edge density        : 0.1723
c max degree          : 16
c avg degree          : 10.17
c min degree          : 6
c
p col 60 305
e 1 31
e 1 33
e 1 36
e 1 42
e 1 45
e 1 55
e 1 57
e 1 59
e 2 21
e 2 25
e 2 28
e 2 33
e 2 48
e 2 51
e 2 59
e 3 24
e 3 25
e 3 26
e 3 29
e 3 30
e 3 31
e 3 32
e 3 34
e 3 38
e 3 42
e 3 48
e 3 52
e 3 55
e 4 21
e 4 28
e 4 35
e 4 36
e 4 50
e 4 51
e 4 58
e 4 59
e 5 31
e 5 35
e 5 39
e 5 42
e 5 45
e 5 46
e 5 47
e 5 50
e 5 51
e 5 53
e 5 54
e 5 59
e 6 23
e 6 34
e 6 47
e 6 49
e 6 51
e 6 53
e 6 56
e 6 58
e 6 60
e 7 21
e 7 22
e 7 24
e 7 37
e 7 38
e 7 43
e 7 51
e 7 53
e 7 55
e 7 57
e 8 22
e 8 23
e 8 33
e 8 35
e 8 36
e 8 39
e 8 47
e 8 49
e 8 57
e 9 25
e 9 28
e 9 29
e 9 33
e 9 34
e 9 38
e 9 48
e 9 50
e 9 54
e 9 56
e 9 58
e 10 21
e 10 24
e 10 26
e 10 32
e 10 35
e 10 37
e 10 39
e 10 48
e 10 53
e 10 55
e 11 25
e 11 26
e 11 28
e 11 30
e 11 31
e 11 32
e 11 38
e 11 41
e 11 43
e 11 54
e 11 60
e 12 23
e 12 29
e 12 33
e 12 35
e 12 40
e 12 44
e 12 46
e 12 49
e 12 50
e 12 54
e 12 56
e 12 57
e 12 59
e 13 24
e 13 25
e 13 30
e 13 31
e 13 38
e 13 39
e 13 41
e 13 42
e 13 44
e 13 48
e 13 49
e 13 53
e 13 59
e 14 25
e 14 29
e 14 31
e 14 34
e 14 40
e 14 41
e 14 42
e 14 44
e 14 45
e 14 56
e 15 21
e 15 26
e 15 30
e 15 36
e 15 47
e 15 48
e 15 49
e 15 50
e 15 51
e 15 52
e 15 55
e 15 58
e 15 59
e 15 60
e 16 30
e 16 33
e 16 40
e 16 45
e 16 48
e 16 53
e 16 58
e 16 59
e 17 21
e 17 23
e 17 24
e 17 26
e 17 40
e 17 42
e 17 48
e 17 53
e 17 54
e 17 57
e 18 21
e 18 24
e 18 27
e 18 33
e 18 38
e 18 46
e 18 51
e 18 58
e 19 25
e 19 28
e 19 29
e 19 31
e 19 35
e 19 41
e 19 43
e 19 51
e 19 52
e 20 22
e 20 30
e 20 33
e 20 34
e 20 40
e 20 41
e 20 51
e 20 54
e 20 59
e 20 60
e 21 41
e 21 42
e 21 44
e 21 46
e 21 47
e 21 48
e 21 53
e 21 57
e 21 60
e 22 42
e 22 45
e 22 47
e 22 48
e 22 49
e 22 50
e 22 55
e 23 46
e 23 49
e 23 50
e 23 57
e 23 58
e 23 59
e 24 47
e 24 50
e 24 52
e 24 53
e 24 55
e 24 60
e 25 47
e 25 54
e 25 56
e 25 58
e 25 60
e 26 41
e 26 51
e 26 54
e 26 56
e 26 58
e 26 60
e 27 42
e 27 48
e 27 49
e 27 55
e 27 56
e 27 59
e 28 44
e 28 46
e 28 52
e 28 53
e 29 44
e 29 54
e 29 56
e 29 59
e 30 42
e 30 45
e 30 48
e 30 52
e 30 56
e 32 41
e 32 42
e 32 45
e 32 49
e 32 50
e 32 59
e 33 41
e 33 43
e 33 46
e 33 51
e 33 56
e 33 59
e 33 60
e 34 45
e 34 49
e 34 51
e 34 58
e 34 60
e 35 41
e 35 51
e 35 60
e 36 43
e 36 46
e 36 57
e 37 45
e 37 46
e 37 49
e 37 50
e 37 59
e 37 60
e 38 43
e 38 49
e 38 51
e 38 59
e 39 43
e 39 47
e 39 48
e 39 53
e 39 56
e 39 57
e 39 60
e 40 41
e 40 50
e 40 52
