c FILE: balanced_graphs/balanced_140_7_25_4.col
c
c DESCRIPTION: Random balanced graph, 140 nodes,
c              partitions 7
c              edge probability 0.25
c
c G(140,7,0.25) graph
c number of vertices : 140
c max number of edges: 9730
c edge probability   : 0.25
c
c           Graph Stats
c number of vertices  : 140
c nonisolated vertices: 140
c number of edges     : 2073
c edge density        : 0.2131
c max degree          : 41
c avg degree          : 29.61
c min degree          : 18
c
p col 140 2073
e 1 22
e 1 23
e 1 25
e 1 27
e 1 29
e 1 36
e 1 37
e 1 39
e 1 40
e 1 45
e 1 47
e 1 56
e 1 57
e 1 59
e 1 61
e 1 65
e 1 73
e 1 75
e 1 77
e 1 78
e 1 80
e 1 84
e 1 86
e 1 99
e 1 100
e 1 106
e 1 108
e 1 112
e 1 118
e 1 119
e 1 121
e 1 122
e 1 125
e 1 135
e 1 136
e 1 139
e 2 26
e 2 35
e 2 36
e 2 40
e 2 48
e 2 57
e 2 61
e 2 62
e 2 76
e 2 81
e 2 82
e 2 86
e 2 87
e 2 91
e 2 94
e 2 95
e 2 102
e 2 105
e 2 106
e 2 107
e 2 108
e 2 113
e 2 115
e 2 119
e 2 122
e 2 124
e 2 126
e 2 137
e 2 139
e 2 140
e 3 22
e 3 24
e 3 31
e 3 33
e 3 35
e 3 38
e 3 41
e 3 49
e 3 53
e 3 55
e 3 60
e 3 61
e 3 63
e 3 64
e 3 75
e 3 78
e 3 79
e 3 80
e 3 82
e 3 92
e 3 99
e 3 106
e 3 109
e 3 110
e 3 114
e 3 116
e 3 119
e 3 120
e 3 121
e 3 129
e 3 130
e 3 140
e 4 25
e 4 32
e 4 42
e 4 45
e 4 51
e 4 53
e 4 57
e 4 62
e 4 64
e 4 66
e 4 71
e 4 74
e 4 77
e 4 78
e 4 79
e 4 81
e 4 86
e 4 92
e 4 97
e 4 98
e 4 100
e 4 104
e 4 105
e 4 110
e 4 121
e 4 123
e 4 124
e 4 125
e 4 126
e 4 128
e 4 129
e 4 130
e 4 132
e 4 134
e 4 135
e 5 23
e 5 25
e 5 28
e 5 30
e 5 32
e 5 34
e 5 47
e 5 52
e 5 53
e 5 69
e 5 70
e 5 72
e 5 80
e 5 85
e 5 86
e 5 90
e 5 107
e 5 109
e 5 111
e 5 121
e 5 124
e 5 135
e 5 137
e 6 29
e 6 32
e 6 34
e 6 35
e 6 36
e 6 37
e 6 40
e 6 49
e 6 66
e 6 75
e 6 82
e 6 88
e 6 89
e 6 94
e 6 97
e 6 107
e 6 114
e 6 128
e 6 137
e 6 138
e 7 23
e 7 25
e 7 26
e 7 28
e 7 30
e 7 31
e 7 33
e 7 42
e 7 50
e 7 55
e 7 59
e 7 65
e 7 67
e 7 73
e 7 74
e 7 75
e 7 78
e 7 83
e 7 96
e 7 100
e 7 104
e 7 108
e 7 114
e 7 119
e 7 125
e 7 127
e 7 128
e 7 129
e 7 139
e 8 23
e 8 33
e 8 34
e 8 43
e 8 44
e 8 50
e 8 54
e 8 55
e 8 58
e 8 59
e 8 65
e 8 68
e 8 71
e 8 88
e 8 90
e 8 99
e 8 100
e 8 108
e 8 117
e 8 119
e 8 128
e 8 137
e 9 25
e 9 26
e 9 27
e 9 29
e 9 49
e 9 50
e 9 53
e 9 54
e 9 72
e 9 76
e 9 77
e 9 86
e 9 96
e 9 100
e 9 110
e 9 121
e 9 125
e 9 139
e 10 22
e 10 24
e 10 33
e 10 36
e 10 38
e 10 41
e 10 44
e 10 49
e 10 56
e 10 58
e 10 60
e 10 64
e 10 65
e 10 66
e 10 71
e 10 73
e 10 75
e 10 77
e 10 78
e 10 82
e 10 83
e 10 86
e 10 89
e 10 90
e 10 91
e 10 94
e 10 97
e 10 99
e 10 103
e 10 110
e 10 115
e 10 122
e 10 124
e 10 131
e 10 134
e 10 135
e 10 136
e 10 139
e 10 140
e 11 24
e 11 27
e 11 30
e 11 36
e 11 37
e 11 41
e 11 42
e 11 44
e 11 60
e 11 61
e 11 67
e 11 71
e 11 81
e 11 82
e 11 85
e 11 86
e 11 94
e 11 104
e 11 105
e 11 110
e 11 113
e 11 115
e 11 118
e 11 121
e 11 123
e 11 124
e 11 132
e 11 134
e 11 137
e 11 140
e 12 21
e 12 24
e 12 37
e 12 40
e 12 41
e 12 42
e 12 45
e 12 47
e 12 50
e 12 52
e 12 57
e 12 59
e 12 61
e 12 64
e 12 66
e 12 68
e 12 84
e 12 88
e 12 89
e 12 90
e 12 92
e 12 93
e 12 95
e 12 105
e 12 107
e 12 112
e 12 128
e 12 129
e 12 133
e 12 138
e 12 140
e 13 24
e 13 31
e 13 39
e 13 40
e 13 54
e 13 62
e 13 66
e 13 69
e 13 75
e 13 80
e 13 81
e 13 83
e 13 85
e 13 86
e 13 90
e 13 92
e 13 94
e 13 101
e 13 105
e 13 112
e 13 118
e 13 124
e 13 125
e 13 127
e 13 128
e 13 134
e 13 138
e 14 25
e 14 27
e 14 32
e 14 34
e 14 35
e 14 36
e 14 40
e 14 45
e 14 52
e 14 55
e 14 56
e 14 60
e 14 62
e 14 64
e 14 65
e 14 66
e 14 71
e 14 76
e 14 77
e 14 79
e 14 82
e 14 84
e 14 85
e 14 89
e 14 92
e 14 97
e 14 100
e 14 103
e 14 104
e 14 106
e 14 112
e 14 114
e 14 115
e 14 118
e 14 121
e 14 128
e 14 139
e 14 140
e 15 25
e 15 28
e 15 29
e 15 37
e 15 39
e 15 54
e 15 55
e 15 57
e 15 58
e 15 61
e 15 62
e 15 63
e 15 64
e 15 66
e 15 72
e 15 75
e 15 77
e 15 88
e 15 89
e 15 91
e 15 107
e 15 112
e 15 114
e 15 115
e 15 117
e 15 120
e 15 123
e 15 124
e 15 125
e 15 129
e 15 130
e 15 133
e 15 140
e 16 21
e 16 22
e 16 25
e 16 29
e 16 31
e 16 32
e 16 38
e 16 43
e 16 50
e 16 60
e 16 62
e 16 63
e 16 78
e 16 79
e 16 83
e 16 84
e 16 85
e 16 86
e 16 91
e 16 92
e 16 97
e 16 101
e 16 106
e 16 111
e 16 115
e 16 117
e 16 118
e 16 120
e 16 134
e 16 138
e 17 26
e 17 27
e 17 34
e 17 35
e 17 38
e 17 41
e 17 42
e 17 43
e 17 50
e 17 55
e 17 58
e 17 61
e 17 62
e 17 63
e 17 71
e 17 74
e 17 75
e 17 78
e 17 84
e 17 86
e 17 88
e 17 90
e 17 101
e 17 104
e 17 105
e 17 109
e 17 111
e 17 117
e 17 119
e 17 122
e 17 128
e 17 129
e 17 130
e 17 133
e 17 134
e 17 135
e 17 137
e 18 22
e 18 32
e 18 33
e 18 35
e 18 49
e 18 52
e 18 58
e 18 63
e 18 74
e 18 82
e 18 88
e 18 95
e 18 97
e 18 101
e 18 107
e 18 114
e 18 117
e 18 119
e 18 126
e 18 127
e 18 130
e 18 132
e 19 24
e 19 27
e 19 33
e 19 34
e 19 36
e 19 40
e 19 44
e 19 46
e 19 53
e 19 55
e 19 61
e 19 71
e 19 72
e 19 77
e 19 84
e 19 86
e 19 92
e 19 93
e 19 94
e 19 97
e 19 104
e 19 122
e 19 125
e 19 131
e 19 135
e 20 22
e 20 25
e 20 26
e 20 28
e 20 30
e 20 32
e 20 34
e 20 41
e 20 42
e 20 44
e 20 53
e 20 61
e 20 65
e 20 69
e 20 87
e 20 89
e 20 92
e 20 93
e 20 94
e 20 95
e 20 102
e 20 106
e 20 107
e 20 110
e 20 113
e 20 125
e 20 135
e 20 136
e 20 139
e 20 140
e 21 44
e 21 55
e 21 60
e 21 65
e 21 67
e 21 70
e 21 71
e 21 81
e 21 82
e 21 86
e 21 90
e 21 91
e 21 93
e 21 98
e 21 110
e 21 118
e 21 119
e 21 121
e 21 122
e 21 132
e 21 137
e 22 45
e 22 52
e 22 55
e 22 56
e 22 64
e 22 72
e 22 80
e 22 82
e 22 84
e 22 99
e 22 102
e 22 103
e 22 106
e 22 111
e 22 112
e 22 114
e 22 116
e 22 118
e 22 120
e 22 125
e 22 128
e 22 132
e 22 140
e 23 42
e 23 47
e 23 52
e 23 56
e 23 57
e 23 64
e 23 67
e 23 69
e 23 71
e 23 73
e 23 78
e 23 86
e 23 87
e 23 96
e 23 101
e 23 102
e 23 106
e 23 112
e 23 113
e 23 116
e 23 120
e 23 124
e 23 125
e 23 128
e 23 130
e 24 42
e 24 43
e 24 44
e 24 45
e 24 47
e 24 48
e 24 51
e 24 53
e 24 55
e 24 58
e 24 60
e 24 63
e 24 70
e 24 71
e 24 73
e 24 76
e 24 79
e 24 80
e 24 91
e 24 92
e 24 95
e 24 100
e 24 102
e 24 103
e 24 108
e 24 111
e 24 112
e 24 113
e 24 114
e 24 123
e 24 126
e 25 46
e 25 62
e 25 69
e 25 74
e 25 75
e 25 76
e 25 77
e 25 78
e 25 82
e 25 84
e 25 87
e 25 89
e 25 104
e 25 108
e 25 111
e 25 113
e 25 117
e 25 123
e 25 127
e 25 140
e 26 41
e 26 43
e 26 44
e 26 52
e 26 54
e 26 58
e 26 61
e 26 66
e 26 75
e 26 78
e 26 79
e 26 80
e 26 83
e 26 84
e 26 86
e 26 94
e 26 97
e 26 106
e 26 108
e 26 109
e 26 111
e 26 118
e 26 120
e 26 121
e 26 126
e 26 136
e 27 44
e 27 45
e 27 49
e 27 50
e 27 52
e 27 56
e 27 59
e 27 63
e 27 73
e 27 77
e 27 78
e 27 83
e 27 88
e 27 89
e 27 91
e 27 97
e 27 98
e 27 99
e 27 100
e 27 104
e 27 105
e 27 107
e 27 109
e 27 112
e 27 115
e 27 117
e 27 121
e 27 123
e 27 125
e 27 136
e 28 41
e 28 49
e 28 54
e 28 57
e 28 58
e 28 60
e 28 66
e 28 67
e 28 70
e 28 78
e 28 80
e 28 82
e 28 87
e 28 88
e 28 95
e 28 97
e 28 103
e 28 104
e 28 120
e 28 127
e 28 129
e 28 134
e 28 135
e 29 42
e 29 57
e 29 58
e 29 62
e 29 65
e 29 66
e 29 67
e 29 68
e 29 71
e 29 91
e 29 96
e 29 101
e 29 106
e 29 107
e 29 108
e 29 112
e 29 114
e 29 119
e 29 124
e 29 126
e 29 137
e 29 140
e 30 41
e 30 44
e 30 55
e 30 58
e 30 59
e 30 61
e 30 64
e 30 66
e 30 72
e 30 78
e 30 82
e 30 83
e 30 84
e 30 86
e 30 88
e 30 92
e 30 96
e 30 98
e 30 101
e 30 103
e 30 106
e 30 112
e 30 115
e 30 124
e 30 131
e 30 135
e 30 139
e 31 43
e 31 44
e 31 49
e 31 54
e 31 55
e 31 58
e 31 64
e 31 67
e 31 74
e 31 76
e 31 79
e 31 97
e 31 112
e 31 115
e 31 117
e 31 123
e 31 126
e 31 130
e 31 132
e 31 138
e 31 139
e 32 45
e 32 46
e 32 54
e 32 56
e 32 62
e 32 64
e 32 70
e 32 71
e 32 76
e 32 86
e 32 91
e 32 92
e 32 94
e 32 97
e 32 98
e 32 102
e 32 107
e 32 109
e 32 111
e 32 127
e 32 128
e 32 132
e 33 41
e 33 42
e 33 46
e 33 67
e 33 73
e 33 75
e 33 79
e 33 81
e 33 88
e 33 89
e 33 91
e 33 95
e 33 106
e 33 117
e 33 120
e 33 122
e 33 132
e 33 138
e 34 43
e 34 49
e 34 50
e 34 52
e 34 56
e 34 78
e 34 83
e 34 92
e 34 97
e 34 103
e 34 104
e 34 105
e 34 111
e 34 118
e 34 126
e 34 128
e 34 133
e 34 138
e 35 43
e 35 44
e 35 49
e 35 52
e 35 53
e 35 54
e 35 60
e 35 62
e 35 63
e 35 65
e 35 67
e 35 68
e 35 74
e 35 76
e 35 78
e 35 89
e 35 92
e 35 94
e 35 95
e 35 102
e 35 108
e 35 110
e 35 112
e 35 116
e 35 119
e 35 122
e 35 126
e 35 128
e 35 129
e 35 131
e 35 136
e 35 138
e 36 41
e 36 43
e 36 52
e 36 53
e 36 57
e 36 59
e 36 72
e 36 74
e 36 81
e 36 89
e 36 92
e 36 93
e 36 97
e 36 99
e 36 105
e 36 110
e 36 112
e 36 117
e 36 124
e 36 133
e 36 134
e 36 139
e 36 140
e 37 41
e 37 45
e 37 53
e 37 54
e 37 57
e 37 59
e 37 62
e 37 64
e 37 68
e 37 69
e 37 79
e 37 81
e 37 83
e 37 85
e 37 93
e 37 94
e 37 95
e 37 96
e 37 100
e 37 103
e 37 105
e 37 111
e 37 112
e 37 113
e 37 117
e 37 129
e 37 140
e 38 42
e 38 43
e 38 48
e 38 50
e 38 53
e 38 55
e 38 57
e 38 58
e 38 59
e 38 64
e 38 67
e 38 74
e 38 75
e 38 79
e 38 82
e 38 83
e 38 86
e 38 88
e 38 100
e 38 111
e 38 118
e 38 120
e 38 129
e 38 131
e 38 136
e 39 51
e 39 54
e 39 59
e 39 66
e 39 68
e 39 82
e 39 88
e 39 89
e 39 93
e 39 94
e 39 95
e 39 105
e 39 108
e 39 120
e 39 121
e 39 124
e 39 125
e 39 133
e 39 135
e 39 136
e 39 140
e 40 42
e 40 45
e 40 47
e 40 48
e 40 50
e 40 58
e 40 62
e 40 66
e 40 74
e 40 77
e 40 78
e 40 80
e 40 87
e 40 98
e 40 102
e 40 110
e 40 114
e 40 116
e 40 121
e 40 122
e 40 124
e 40 125
e 40 136
e 40 137
e 40 140
e 41 61
e 41 63
e 41 75
e 41 76
e 41 80
e 41 84
e 41 86
e 41 90
e 41 91
e 41 93
e 41 98
e 41 103
e 41 107
e 41 121
e 41 127
e 41 132
e 42 61
e 42 69
e 42 77
e 42 79
e 42 81
e 42 83
e 42 90
e 42 91
e 42 92
e 42 93
e 42 95
e 42 98
e 42 102
e 42 105
e 42 107
e 42 109
e 42 122
e 42 127
e 42 129
e 42 130
e 42 133
e 42 136
e 42 138
e 43 64
e 43 72
e 43 73
e 43 77
e 43 79
e 43 80
e 43 82
e 43 85
e 43 94
e 43 97
e 43 100
e 43 108
e 43 112
e 43 113
e 43 114
e 43 115
e 43 118
e 43 120
e 43 125
e 43 126
e 43 132
e 43 133
e 43 134
e 44 63
e 44 67
e 44 71
e 44 72
e 44 74
e 44 75
e 44 76
e 44 81
e 44 86
e 44 87
e 44 92
e 44 98
e 44 99
e 44 101
e 44 113
e 44 118
e 44 133
e 45 62
e 45 83
e 45 93
e 45 94
e 45 97
e 45 98
e 45 99
e 45 103
e 45 109
e 45 110
e 45 115
e 45 118
e 45 122
e 45 126
e 45 128
e 45 130
e 45 133
e 45 134
e 45 135
e 45 136
e 45 137
e 45 138
e 46 63
e 46 67
e 46 68
e 46 73
e 46 74
e 46 77
e 46 78
e 46 81
e 46 84
e 46 90
e 46 96
e 46 98
e 46 101
e 46 102
e 46 104
e 46 105
e 46 112
e 46 114
e 46 115
e 46 117
e 46 120
e 46 131
e 46 136
e 47 70
e 47 72
e 47 73
e 47 75
e 47 82
e 47 83
e 47 86
e 47 90
e 47 92
e 47 97
e 47 98
e 47 103
e 47 104
e 47 108
e 47 110
e 47 117
e 47 120
e 47 127
e 47 128
e 47 138
e 48 61
e 48 62
e 48 64
e 48 68
e 48 71
e 48 75
e 48 80
e 48 83
e 48 90
e 48 91
e 48 94
e 48 96
e 48 101
e 48 103
e 48 109
e 48 110
e 48 113
e 48 114
e 48 115
e 48 116
e 48 125
e 48 127
e 48 130
e 48 132
e 48 136
e 48 139
e 49 62
e 49 64
e 49 72
e 49 73
e 49 79
e 49 80
e 49 81
e 49 82
e 49 83
e 49 90
e 49 91
e 49 93
e 49 95
e 49 96
e 49 104
e 49 109
e 49 114
e 49 120
e 49 122
e 49 131
e 49 133
e 49 136
e 49 137
e 50 62
e 50 65
e 50 67
e 50 70
e 50 71
e 50 76
e 50 83
e 50 84
e 50 91
e 50 92
e 50 96
e 50 98
e 50 99
e 50 101
e 50 104
e 50 105
e 50 106
e 50 109
e 50 110
e 50 113
e 50 115
e 50 119
e 50 133
e 50 136
e 50 138
e 51 61
e 51 63
e 51 69
e 51 71
e 51 73
e 51 75
e 51 76
e 51 89
e 51 91
e 51 95
e 51 97
e 51 103
e 51 104
e 51 108
e 51 112
e 51 113
e 51 115
e 51 125
e 51 126
e 51 128
e 51 130
e 51 132
e 51 134
e 52 61
e 52 67
e 52 68
e 52 73
e 52 74
e 52 76
e 52 81
e 52 86
e 52 96
e 52 100
e 52 102
e 52 106
e 52 107
e 52 111
e 52 112
e 52 114
e 52 115
e 52 119
e 52 125
e 52 129
e 52 135
e 52 136
e 53 63
e 53 67
e 53 69
e 53 77
e 53 79
e 53 84
e 53 87
e 53 92
e 53 106
e 53 108
e 53 113
e 53 117
e 53 118
e 53 125
e 53 137
e 54 61
e 54 64
e 54 65
e 54 66
e 54 67
e 54 72
e 54 74
e 54 78
e 54 80
e 54 82
e 54 90
e 54 93
e 54 94
e 54 97
e 54 101
e 54 105
e 54 117
e 54 121
e 54 123
e 54 128
e 54 130
e 54 133
e 54 135
e 55 61
e 55 62
e 55 63
e 55 64
e 55 68
e 55 72
e 55 73
e 55 74
e 55 75
e 55 78
e 55 79
e 55 80
e 55 82
e 55 87
e 55 92
e 55 97
e 55 101
e 55 104
e 55 106
e 55 109
e 55 120
e 55 126
e 55 129
e 55 131
e 55 134
e 55 136
e 55 137
e 55 138
e 56 66
e 56 70
e 56 71
e 56 72
e 56 74
e 56 75
e 56 77
e 56 93
e 56 95
e 56 101
e 56 112
e 56 115
e 56 117
e 56 119
e 56 126
e 57 67
e 57 81
e 57 84
e 57 85
e 57 90
e 57 91
e 57 99
e 57 102
e 57 113
e 57 114
e 57 115
e 57 126
e 57 135
e 58 61
e 58 67
e 58 68
e 58 76
e 58 82
e 58 88
e 58 89
e 58 98
e 58 108
e 58 114
e 58 115
e 58 121
e 58 127
e 58 130
e 58 131
e 58 133
e 58 138
e 59 61
e 59 63
e 59 65
e 59 66
e 59 79
e 59 80
e 59 83
e 59 86
e 59 87
e 59 89
e 59 91
e 59 93
e 59 97
e 59 105
e 59 106
e 59 107
e 59 110
e 59 113
e 59 117
e 59 119
e 59 122
e 59 123
e 59 133
e 59 135
e 59 136
e 60 61
e 60 63
e 60 64
e 60 76
e 60 77
e 60 78
e 60 87
e 60 94
e 60 95
e 60 101
e 60 104
e 60 105
e 60 106
e 60 109
e 60 112
e 60 113
e 60 114
e 60 116
e 60 118
e 60 122
e 60 124
e 60 134
e 60 136
e 60 137
e 60 140
e 61 81
e 61 85
e 61 87
e 61 91
e 61 92
e 61 93
e 61 101
e 61 108
e 61 112
e 61 116
e 61 123
e 61 125
e 61 127
e 61 132
e 61 133
e 61 134
e 61 135
e 61 140
e 62 81
e 62 83
e 62 93
e 62 96
e 62 97
e 62 100
e 62 101
e 62 106
e 62 119
e 62 129
e 62 134
e 62 135
e 62 137
e 62 140
e 63 83
e 63 84
e 63 89
e 63 96
e 63 106
e 63 118
e 63 121
e 63 122
e 63 124
e 63 130
e 63 131
e 63 132
e 63 134
e 63 137
e 63 138
e 63 139
e 64 81
e 64 82
e 64 86
e 64 88
e 64 102
e 64 109
e 64 110
e 64 123
e 64 127
e 65 81
e 65 85
e 65 91
e 65 95
e 65 96
e 65 97
e 65 103
e 65 108
e 65 115
e 65 117
e 65 121
e 65 124
e 65 128
e 65 129
e 65 133
e 65 134
e 65 136
e 66 86
e 66 88
e 66 90
e 66 92
e 66 106
e 66 108
e 66 109
e 66 110
e 66 117
e 66 122
e 66 135
e 67 84
e 67 89
e 67 90
e 67 99
e 67 102
e 67 110
e 67 121
e 67 124
e 67 126
e 67 130
e 67 132
e 67 139
e 68 83
e 68 84
e 68 87
e 68 89
e 68 90
e 68 91
e 68 98
e 68 99
e 68 100
e 68 104
e 68 105
e 68 113
e 68 118
e 68 119
e 68 124
e 68 126
e 68 127
e 68 135
e 68 136
e 68 139
e 68 140
e 69 81
e 69 90
e 69 93
e 69 95
e 69 103
e 69 104
e 69 107
e 69 110
e 69 111
e 69 113
e 69 114
e 69 119
e 69 121
e 69 132
e 69 138
e 69 139
e 69 140
e 70 86
e 70 87
e 70 88
e 70 91
e 70 92
e 70 97
e 70 101
e 70 105
e 70 113
e 70 126
e 70 139
e 71 82
e 71 88
e 71 89
e 71 92
e 71 113
e 71 115
e 71 119
e 71 121
e 71 124
e 71 132
e 71 134
e 71 137
e 72 82
e 72 85
e 72 87
e 72 95
e 72 96
e 72 99
e 72 102
e 72 108
e 72 113
e 72 120
e 72 127
e 72 133
e 72 136
e 73 83
e 73 85
e 73 88
e 73 93
e 73 101
e 73 103
e 73 105
e 73 106
e 73 108
e 73 113
e 73 116
e 73 121
e 73 122
e 73 126
e 73 127
e 73 133
e 73 139
e 74 85
e 74 92
e 74 93
e 74 94
e 74 95
e 74 111
e 74 113
e 74 121
e 74 122
e 74 129
e 74 134
e 74 135
e 75 82
e 75 84
e 75 86
e 75 90
e 75 92
e 75 99
e 75 114
e 75 115
e 75 123
e 75 133
e 75 137
e 75 139
e 76 86
e 76 87
e 76 93
e 76 100
e 76 101
e 76 104
e 76 109
e 76 112
e 76 114
e 76 115
e 76 118
e 76 122
e 76 123
e 76 125
e 76 127
e 76 135
e 76 137
e 76 140
e 77 82
e 77 98
e 77 100
e 77 101
e 77 108
e 77 109
e 77 116
e 77 124
e 77 125
e 77 126
e 77 131
e 77 132
e 77 136
e 78 81
e 78 82
e 78 84
e 78 90
e 78 92
e 78 94
e 78 100
e 78 107
e 78 108
e 78 112
e 78 113
e 78 117
e 78 120
e 78 123
e 78 124
e 78 128
e 78 130
e 78 133
e 78 134
e 78 140
e 79 82
e 79 85
e 79 93
e 79 94
e 79 96
e 79 103
e 79 104
e 79 106
e 79 108
e 79 120
e 79 139
e 80 84
e 80 87
e 80 90
e 80 92
e 80 96
e 80 99
e 80 104
e 80 111
e 80 114
e 80 118
e 80 119
e 80 123
e 80 125
e 80 126
e 80 132
e 80 134
e 81 101
e 81 104
e 81 106
e 81 107
e 81 116
e 81 122
e 81 130
e 81 135
e 82 113
e 82 114
e 82 117
e 82 121
e 82 124
e 82 129
e 82 132
e 82 138
e 82 139
e 83 113
e 83 120
e 83 131
e 83 133
e 83 136
e 83 139
e 84 106
e 84 111
e 84 112
e 84 113
e 84 115
e 84 117
e 84 119
e 84 124
e 84 129
e 84 136
e 84 139
e 85 102
e 85 105
e 85 110
e 85 111
e 85 124
e 85 125
e 85 126
e 85 128
e 85 129
e 85 133
e 85 137
e 85 140
e 86 107
e 86 108
e 86 114
e 86 117
e 86 121
e 86 128
e 86 136
e 86 139
e 86 140
e 87 103
e 87 107
e 87 108
e 87 119
e 87 121
e 87 122
e 87 123
e 87 125
e 87 130
e 87 133
e 87 138
e 87 139
e 88 108
e 88 110
e 88 112
e 88 123
e 88 124
e 88 130
e 88 136
e 89 109
e 89 110
e 89 117
e 89 124
e 89 125
e 89 135
e 89 136
e 89 138
e 89 139
e 90 104
e 90 113
e 90 115
e 90 116
e 90 117
e 90 119
e 90 125
e 90 131
e 90 138
e 91 101
e 91 109
e 91 111
e 91 117
e 91 118
e 91 122
e 91 123
e 91 124
e 91 125
e 91 126
e 91 128
e 91 131
e 91 138
e 91 139
e 92 106
e 92 120
e 92 121
e 92 135
e 92 136
e 92 139
e 93 102
e 93 106
e 93 118
e 93 120
e 93 121
e 93 122
e 93 127
e 93 133
e 93 137
e 94 105
e 94 107
e 94 109
e 94 110
e 94 111
e 94 113
e 94 130
e 94 132
e 94 139
e 95 105
e 95 107
e 95 110
e 95 115
e 95 117
e 95 120
e 95 121
e 95 122
e 95 123
e 95 126
e 95 127
e 95 130
e 95 131
e 95 135
e 96 106
e 96 113
e 96 116
e 96 118
e 96 120
e 96 125
e 96 135
e 96 140
e 97 106
e 97 118
e 97 128
e 97 129
e 98 101
e 98 102
e 98 103
e 98 111
e 98 113
e 98 117
e 98 118
e 98 119
e 98 122
e 98 123
e 98 124
e 98 127
e 98 128
e 98 139
e 99 102
e 99 103
e 99 104
e 99 110
e 99 115
e 99 116
e 99 122
e 99 126
e 99 127
e 99 129
e 99 137
e 99 138
e 99 139
e 100 103
e 100 106
e 100 111
e 100 127
e 100 133
e 100 137
e 101 121
e 101 131
e 101 133
e 101 135
e 101 136
e 102 129
e 102 132
e 102 136
e 102 139
e 103 127
e 103 140
e 104 126
e 104 135
e 105 125
e 105 128
e 105 132
e 105 133
e 105 136
e 105 138
e 105 139
e 106 121
e 106 122
e 106 132
e 106 138
e 107 121
e 107 125
e 107 128
e 107 133
e 108 124
e 108 125
e 108 133
e 108 135
e 108 137
e 108 140
e 109 122
e 109 127
e 109 132
e 109 134
e 109 139
e 110 121
e 110 122
e 110 126
e 110 130
e 111 125
e 111 129
e 112 130
e 112 133
e 112 137
e 112 138
e 113 121
e 113 122
e 113 127
e 113 128
e 113 136
e 113 140
e 114 126
e 114 128
e 114 129
e 114 132
e 114 133
e 115 122
e 115 123
e 115 124
e 115 125
e 115 130
e 115 131
e 115 132
e 115 134
e 115 140
e 116 121
e 116 122
e 116 123
e 116 124
e 116 126
e 116 128
e 116 137
e 116 139
e 117 121
e 117 125
e 117 126
e 117 130
e 117 138
e 117 139
e 118 126
e 118 131
e 118 138
e 118 139
e 119 122
e 119 124
e 119 128
e 119 131
e 119 132
e 119 138
e 120 121
e 120 124
e 120 125
e 120 127
e 120 128
e 120 129
e 120 132
e 120 133
e 120 135
e 120 136
