c FILE: balanced_graphs/balanced_100_5_25_3.col
c
c DESCRIPTION: Random balanced graph, 100 nodes,
c              partitions 5
c              edge probability 0.25
c
c G(100,5,0.25) graph
c number of vertices : 100
c max number of edges: 4950
c edge probability   : 0.25
c
c           Graph Stats
c number of vertices  : 100
c nonisolated vertices: 100
c number of edges     : 1007
c edge density        : 0.2034
c max degree          : 31
c avg degree          : 20.14
c min degree          : 13
c
p col 100 1007
e 1 22
e 1 24
e 1 27
e 1 38
e 1 41
e 1 56
e 1 63
e 1 67
e 1 72
e 1 73
e 1 75
e 1 77
e 1 86
e 1 87
e 1 89
e 1 92
e 1 96
e 1 97
e 1 98
e 2 23
e 2 25
e 2 33
e 2 34
e 2 40
e 2 46
e 2 50
e 2 59
e 2 61
e 2 62
e 2 68
e 2 73
e 2 74
e 2 80
e 2 81
e 2 86
e 2 87
e 2 90
e 2 94
e 2 98
e 2 100
e 3 23
e 3 27
e 3 33
e 3 34
e 3 35
e 3 41
e 3 43
e 3 46
e 3 48
e 3 51
e 3 54
e 3 56
e 3 58
e 3 59
e 3 60
e 3 62
e 3 66
e 3 73
e 3 75
e 3 78
e 3 90
e 3 95
e 4 24
e 4 25
e 4 32
e 4 35
e 4 36
e 4 38
e 4 39
e 4 42
e 4 43
e 4 44
e 4 45
e 4 52
e 4 56
e 4 57
e 4 58
e 4 60
e 4 67
e 4 69
e 4 75
e 4 80
e 4 82
e 4 83
e 4 91
e 4 93
e 4 94
e 4 98
e 4 99
e 5 21
e 5 27
e 5 33
e 5 34
e 5 37
e 5 41
e 5 44
e 5 48
e 5 68
e 5 70
e 5 71
e 5 81
e 5 82
e 5 86
e 5 89
e 5 92
e 5 96
e 5 98
e 6 23
e 6 24
e 6 29
e 6 30
e 6 31
e 6 41
e 6 44
e 6 56
e 6 64
e 6 80
e 6 83
e 6 84
e 6 87
e 6 90
e 6 92
e 6 96
e 6 99
e 7 21
e 7 22
e 7 29
e 7 32
e 7 33
e 7 41
e 7 46
e 7 60
e 7 90
e 7 91
e 7 95
e 7 97
e 7 100
e 8 21
e 8 22
e 8 24
e 8 39
e 8 46
e 8 48
e 8 51
e 8 54
e 8 55
e 8 57
e 8 62
e 8 63
e 8 64
e 8 69
e 8 71
e 8 83
e 8 90
e 8 95
e 8 98
e 8 100
e 9 27
e 9 32
e 9 34
e 9 35
e 9 42
e 9 43
e 9 47
e 9 49
e 9 52
e 9 54
e 9 56
e 9 58
e 9 61
e 9 62
e 9 63
e 9 72
e 9 74
e 9 76
e 9 79
e 9 87
e 9 94
e 9 95
e 9 96
e 10 23
e 10 26
e 10 28
e 10 35
e 10 37
e 10 38
e 10 43
e 10 53
e 10 59
e 10 65
e 10 68
e 10 72
e 10 75
e 10 77
e 10 81
e 10 82
e 10 84
e 10 89
e 10 91
e 10 92
e 10 98
e 11 25
e 11 27
e 11 34
e 11 49
e 11 53
e 11 54
e 11 59
e 11 67
e 11 79
e 11 81
e 11 83
e 11 84
e 11 86
e 11 88
e 11 93
e 11 94
e 11 98
e 12 22
e 12 28
e 12 38
e 12 43
e 12 45
e 12 50
e 12 55
e 12 57
e 12 60
e 12 63
e 12 73
e 12 79
e 12 88
e 12 92
e 12 98
e 12 100
e 13 21
e 13 23
e 13 24
e 13 38
e 13 40
e 13 41
e 13 45
e 13 47
e 13 53
e 13 57
e 13 62
e 13 63
e 13 64
e 13 65
e 13 67
e 13 68
e 13 69
e 13 71
e 13 76
e 13 82
e 13 85
e 13 91
e 13 93
e 13 95
e 14 22
e 14 33
e 14 35
e 14 40
e 14 44
e 14 49
e 14 50
e 14 60
e 14 61
e 14 62
e 14 70
e 14 71
e 14 78
e 14 83
e 14 87
e 14 90
e 14 96
e 14 98
e 15 21
e 15 23
e 15 31
e 15 32
e 15 36
e 15 44
e 15 45
e 15 46
e 15 51
e 15 53
e 15 61
e 15 72
e 15 79
e 15 80
e 15 82
e 15 89
e 15 95
e 15 100
e 16 26
e 16 27
e 16 28
e 16 29
e 16 37
e 16 38
e 16 52
e 16 56
e 16 57
e 16 59
e 16 61
e 16 63
e 16 67
e 16 70
e 16 72
e 16 74
e 16 77
e 16 78
e 16 81
e 16 82
e 16 83
e 16 84
e 16 85
e 16 94
e 16 96
e 16 98
e 17 24
e 17 25
e 17 41
e 17 43
e 17 44
e 17 47
e 17 49
e 17 50
e 17 51
e 17 54
e 17 59
e 17 61
e 17 67
e 17 86
e 17 88
e 17 96
e 18 25
e 18 28
e 18 32
e 18 33
e 18 35
e 18 36
e 18 40
e 18 41
e 18 42
e 18 51
e 18 56
e 18 59
e 18 60
e 18 63
e 18 71
e 18 72
e 18 74
e 18 87
e 18 90
e 18 91
e 18 96
e 18 100
e 19 21
e 19 27
e 19 28
e 19 30
e 19 31
e 19 41
e 19 43
e 19 46
e 19 55
e 19 61
e 19 68
e 19 69
e 19 71
e 19 75
e 19 77
e 19 79
e 19 81
e 19 84
e 19 86
e 19 88
e 19 93
e 19 98
e 19 99
e 20 24
e 20 26
e 20 31
e 20 33
e 20 36
e 20 39
e 20 46
e 20 47
e 20 51
e 20 59
e 20 61
e 20 62
e 20 69
e 20 75
e 20 86
e 20 87
e 20 95
e 21 46
e 21 55
e 21 61
e 21 63
e 21 65
e 21 66
e 21 74
e 21 76
e 21 92
e 21 94
e 21 97
e 22 41
e 22 46
e 22 48
e 22 57
e 22 65
e 22 70
e 22 76
e 22 78
e 22 80
e 22 81
e 22 82
e 22 92
e 22 97
e 22 100
e 23 45
e 23 48
e 23 52
e 23 53
e 23 55
e 23 58
e 23 61
e 23 65
e 23 68
e 23 83
e 23 85
e 23 93
e 23 95
e 23 96
e 24 44
e 24 47
e 24 48
e 24 49
e 24 51
e 24 52
e 24 57
e 24 64
e 24 68
e 24 87
e 24 88
e 24 90
e 24 96
e 25 42
e 25 55
e 25 61
e 25 65
e 25 67
e 25 68
e 25 72
e 25 78
e 25 79
e 25 83
e 25 84
e 25 87
e 25 89
e 25 91
e 25 93
e 25 94
e 25 96
e 25 97
e 26 42
e 26 51
e 26 54
e 26 57
e 26 60
e 26 65
e 26 66
e 26 67
e 26 72
e 26 74
e 26 84
e 26 86
e 26 88
e 26 90
e 26 92
e 26 93
e 27 44
e 27 47
e 27 50
e 27 56
e 27 57
e 27 60
e 27 65
e 27 69
e 27 86
e 27 87
e 27 97
e 27 98
e 27 100
e 28 41
e 28 44
e 28 53
e 28 56
e 28 60
e 28 63
e 28 65
e 28 68
e 28 73
e 28 74
e 28 76
e 28 77
e 28 79
e 28 80
e 28 83
e 28 85
e 28 87
e 28 90
e 28 91
e 28 95
e 28 100
e 29 41
e 29 43
e 29 55
e 29 56
e 29 61
e 29 62
e 29 65
e 29 70
e 29 71
e 29 75
e 29 76
e 29 77
e 29 81
e 29 86
e 29 90
e 29 94
e 29 96
e 29 97
e 29 98
e 30 45
e 30 47
e 30 58
e 30 59
e 30 61
e 30 62
e 30 66
e 30 70
e 30 73
e 30 79
e 30 86
e 30 95
e 30 97
e 31 48
e 31 51
e 31 53
e 31 56
e 31 60
e 31 67
e 31 83
e 31 85
e 31 90
e 31 92
e 32 41
e 32 52
e 32 54
e 32 56
e 32 58
e 32 62
e 32 63
e 32 64
e 32 73
e 32 74
e 32 77
e 32 79
e 32 81
e 32 85
e 32 86
e 32 89
e 32 90
e 32 95
e 33 42
e 33 47
e 33 51
e 33 54
e 33 55
e 33 56
e 33 57
e 33 58
e 33 61
e 33 64
e 33 73
e 33 80
e 33 83
e 33 89
e 34 45
e 34 49
e 34 50
e 34 51
e 34 52
e 34 56
e 34 61
e 34 62
e 34 66
e 34 67
e 34 69
e 34 70
e 34 74
e 34 76
e 34 88
e 34 89
e 34 90
e 34 93
e 35 42
e 35 48
e 35 56
e 35 58
e 35 59
e 35 61
e 35 68
e 35 76
e 35 90
e 35 93
e 35 95
e 36 41
e 36 43
e 36 44
e 36 47
e 36 54
e 36 57
e 36 58
e 36 63
e 36 69
e 36 71
e 36 76
e 36 83
e 36 84
e 36 86
e 36 88
e 36 90
e 36 92
e 36 94
e 36 95
e 36 96
e 36 97
e 36 99
e 37 41
e 37 46
e 37 48
e 37 49
e 37 51
e 37 61
e 37 67
e 37 75
e 37 76
e 37 80
e 37 84
e 37 86
e 37 90
e 37 91
e 37 94
e 37 95
e 37 97
e 37 100
e 38 42
e 38 44
e 38 51
e 38 56
e 38 59
e 38 64
e 38 66
e 38 68
e 38 71
e 38 73
e 38 78
e 38 80
e 38 83
e 38 86
e 38 88
e 38 90
e 38 92
e 38 93
e 38 95
e 39 43
e 39 44
e 39 49
e 39 54
e 39 58
e 39 64
e 39 78
e 39 85
e 39 87
e 39 90
e 39 93
e 39 96
e 39 99
e 40 45
e 40 58
e 40 60
e 40 75
e 40 76
e 40 78
e 40 79
e 40 87
e 40 90
e 40 91
e 40 93
e 40 96
e 41 67
e 41 69
e 41 71
e 41 78
e 41 84
e 41 86
e 41 87
e 41 92
e 41 95
e 41 96
e 41 100
e 42 62
e 42 68
e 42 71
e 42 74
e 42 76
e 42 79
e 42 85
e 42 86
e 42 88
e 42 95
e 42 99
e 43 64
e 43 67
e 43 72
e 43 77
e 43 82
e 43 92
e 43 93
e 43 95
e 43 96
e 43 98
e 44 63
e 44 64
e 44 67
e 44 70
e 44 73
e 44 77
e 44 85
e 44 88
e 44 89
e 44 94
e 44 96
e 44 98
e 45 63
e 45 64
e 45 65
e 45 66
e 45 74
e 45 78
e 45 81
e 45 93
e 45 96
e 46 62
e 46 63
e 46 68
e 46 70
e 46 81
e 46 82
e 46 85
e 46 86
e 46 87
e 46 93
e 46 97
e 47 63
e 47 72
e 47 73
e 47 80
e 47 84
e 47 87
e 47 91
e 48 63
e 48 64
e 48 65
e 48 71
e 48 88
e 48 91
e 48 94
e 49 63
e 49 69
e 49 72
e 49 90
e 49 92
e 49 93
e 50 66
e 50 70
e 50 71
e 50 72
e 50 77
e 50 80
e 50 83
e 50 84
e 50 87
e 50 91
e 50 98
e 51 62
e 51 69
e 51 79
e 51 82
e 51 90
e 51 99
e 52 62
e 52 67
e 52 68
e 52 71
e 52 78
e 52 79
e 52 81
e 52 88
e 52 91
e 52 95
e 53 62
e 53 64
e 53 70
e 53 71
e 53 78
e 53 79
e 53 83
e 53 89
e 53 92
e 53 97
e 54 64
e 54 74
e 54 75
e 54 77
e 54 86
e 54 87
e 54 90
e 54 94
e 54 100
e 55 61
e 55 65
e 55 72
e 55 73
e 55 74
e 55 80
e 55 88
e 55 96
e 56 62
e 56 66
e 56 68
e 56 74
e 56 75
e 56 84
e 56 87
e 56 88
e 56 90
e 56 100
e 57 66
e 57 69
e 57 73
e 57 77
e 57 80
e 57 82
e 57 83
e 57 90
e 57 93
e 57 95
e 57 98
e 57 100
e 58 61
e 58 62
e 58 66
e 58 68
e 58 76
e 58 80
e 58 81
e 58 82
e 58 83
e 58 84
e 58 86
e 58 87
e 58 88
e 58 98
e 58 99
e 59 61
e 59 62
e 59 64
e 59 65
e 59 72
e 59 83
e 59 86
e 59 87
e 59 88
e 59 90
e 59 91
e 59 98
e 60 63
e 60 72
e 60 73
e 60 79
e 60 80
e 60 81
e 60 84
e 60 89
e 60 95
e 60 96
e 60 100
e 61 82
e 61 86
e 61 92
e 61 94
e 61 98
e 62 81
e 62 89
e 62 92
e 62 95
e 62 100
e 63 82
e 63 83
e 63 87
e 63 88
e 63 89
e 63 93
e 63 95
e 64 85
e 64 86
e 64 87
e 64 91
e 65 87
e 65 94
e 65 98
e 65 99
e 66 82
e 66 84
e 66 87
e 66 89
e 66 92
e 66 93
e 66 99
e 67 82
e 67 85
e 67 96
e 68 85
e 68 90
e 69 93
e 69 99
e 70 84
e 70 88
e 70 89
e 70 92
e 70 93
e 70 99
e 71 89
e 71 90
e 71 92
e 71 93
e 71 98
e 72 83
e 72 87
e 72 90
e 72 91
e 72 93
e 72 95
e 72 98
e 72 99
e 73 81
e 73 83
e 73 84
e 73 89
e 73 91
e 73 93
e 73 97
e 74 81
e 74 83
e 74 89
e 74 90
e 74 91
e 74 92
e 74 95
e 74 96
e 75 86
e 75 91
e 75 95
e 75 97
e 76 84
e 76 85
e 76 86
e 76 92
e 76 95
e 77 87
e 77 88
e 77 91
e 77 99
e 78 81
e 78 95
e 79 83
e 79 84
e 79 88
e 79 90
e 79 93
e 79 94
e 79 98
e 79 99
e 80 81
e 80 84
e 80 87
e 80 89
e 80 93
e 80 96
e 80 98
e 80 99
