c FILE: balanced_graphs/balanced_60_3_10_2.col
c
c DESCRIPTION: Random balanced graph, 60 nodes,
c              partitions 3
c              edge probability 0.1
c
c G(60,3,0.1) graph
c number of vertices : 60
c max number of edges: 1770
c edge probability   : 0.1
c
c           Graph Stats
c number of vertices  : 60
c nonisolated vertices: 60
c number of edges     : 113
c edge density        : 0.0638
c max degree          : 7
c avg degree          : 3.77
c min degree          : 1
c
p col 60 113
e 1 30
e 1 33
e 1 35
e 1 47
e 1 53
e 2 38
e 3 22
e 3 32
e 3 36
e 3 43
e 3 46
e 3 49
e 3 50
e 4 47
e 4 52
e 4 54
e 4 57
e 5 29
e 5 34
e 5 43
e 5 50
e 6 39
e 6 51
e 6 54
e 7 26
e 7 54
e 8 24
e 8 39
e 8 43
e 8 58
e 9 24
e 9 30
e 9 31
e 9 35
e 9 48
e 9 50
e 9 58
e 10 29
e 10 44
e 10 47
e 11 23
e 11 29
e 11 46
e 12 26
e 12 34
e 12 35
e 12 38
e 12 58
e 13 24
e 13 41
e 14 23
e 14 28
e 14 51
e 15 28
e 15 38
e 15 43
e 15 45
e 15 46
e 15 54
e 15 56
e 16 26
e 16 28
e 16 37
e 16 46
e 17 39
e 17 47
e 17 56
e 18 35
e 18 36
e 18 56
e 19 58
e 20 34
e 20 48
e 20 55
e 20 57
e 20 59
e 20 60
e 21 60
e 22 47
e 22 52
e 23 45
e 24 48
e 25 42
e 25 56
e 27 44
e 28 41
e 28 49
e 28 57
e 29 50
e 30 58
e 30 59
e 33 41
e 33 47
e 33 55
e 33 59
e 33 60
e 34 46
e 35 45
e 35 49
e 36 54
e 36 55
e 37 53
e 37 55
e 37 56
e 37 57
e 38 45
e 38 50
e 39 42
e 39 43
e 39 52
e 40 49
e 40 52
e 40 56
