c FILE: balanced_graphs/balanced_100_5_50_3.col
c
c DESCRIPTION: Random balanced graph, 100 nodes,
c              partitions 5
c              edge probability 0.5
c
c G(100,5,0.5) graph
c number of vertices : 100
c max number of edges: 4950
c edge probability   : 0.5
c
c           Graph Stats
c number of vertices  : 100
c nonisolated vertices: 100
c number of edges     : 2005
c edge density        : 0.4051
c max degree          : 49
c avg degree          : 40.10
c min degree          : 30
c
p col 100 2005
e 1 25
e 1 26
e 1 28
e 1 29
e 1 30
e 1 33
e 1 36
e 1 37
e 1 38
e 1 40
e 1 41
e 1 43
e 1 45
e 1 49
e 1 50
e 1 51
e 1 53
e 1 54
e 1 58
e 1 59
e 1 62
e 1 63
e 1 64
e 1 65
e 1 68
e 1 70
e 1 73
e 1 74
e 1 77
e 1 79
e 1 82
e 1 87
e 1 88
e 1 89
e 1 90
e 1 92
e 1 94
e 1 99
e 1 100
e 2 21
e 2 32
e 2 33
e 2 38
e 2 40
e 2 41
e 2 43
e 2 45
e 2 47
e 2 48
e 2 50
e 2 51
e 2 52
e 2 53
e 2 55
e 2 56
e 2 57
e 2 59
e 2 61
e 2 62
e 2 63
e 2 64
e 2 66
e 2 67
e 2 70
e 2 71
e 2 73
e 2 79
e 2 82
e 2 83
e 2 86
e 2 88
e 2 95
e 2 96
e 2 97
e 3 22
e 3 25
e 3 26
e 3 29
e 3 31
e 3 32
e 3 34
e 3 37
e 3 38
e 3 39
e 3 41
e 3 42
e 3 47
e 3 50
e 3 51
e 3 52
e 3 53
e 3 56
e 3 58
e 3 59
e 3 61
e 3 63
e 3 66
e 3 68
e 3 69
e 3 72
e 3 74
e 3 76
e 3 80
e 3 82
e 3 85
e 3 87
e 3 88
e 3 89
e 3 91
e 3 96
e 3 97
e 4 23
e 4 24
e 4 27
e 4 34
e 4 36
e 4 41
e 4 42
e 4 45
e 4 46
e 4 49
e 4 52
e 4 55
e 4 56
e 4 57
e 4 58
e 4 62
e 4 64
e 4 67
e 4 69
e 4 70
e 4 71
e 4 72
e 4 75
e 4 78
e 4 82
e 4 83
e 4 86
e 4 87
e 4 88
e 4 96
e 4 97
e 4 98
e 4 99
e 4 100
e 5 23
e 5 25
e 5 27
e 5 28
e 5 32
e 5 37
e 5 39
e 5 42
e 5 44
e 5 45
e 5 46
e 5 47
e 5 48
e 5 50
e 5 52
e 5 53
e 5 54
e 5 55
e 5 58
e 5 59
e 5 64
e 5 69
e 5 72
e 5 77
e 5 78
e 5 80
e 5 82
e 5 86
e 5 87
e 5 88
e 5 89
e 5 90
e 5 91
e 5 92
e 5 96
e 5 99
e 6 24
e 6 27
e 6 28
e 6 30
e 6 31
e 6 32
e 6 33
e 6 34
e 6 35
e 6 37
e 6 39
e 6 42
e 6 44
e 6 45
e 6 46
e 6 47
e 6 48
e 6 50
e 6 51
e 6 52
e 6 53
e 6 54
e 6 55
e 6 56
e 6 57
e 6 58
e 6 59
e 6 60
e 6 61
e 6 63
e 6 64
e 6 68
e 6 71
e 6 75
e 6 77
e 6 78
e 6 79
e 6 83
e 6 89
e 6 90
e 6 91
e 6 97
e 7 21
e 7 22
e 7 27
e 7 30
e 7 31
e 7 33
e 7 36
e 7 37
e 7 38
e 7 39
e 7 40
e 7 44
e 7 46
e 7 48
e 7 54
e 7 57
e 7 58
e 7 60
e 7 61
e 7 63
e 7 64
e 7 66
e 7 67
e 7 69
e 7 70
e 7 76
e 7 81
e 7 83
e 7 86
e 7 87
e 7 89
e 7 92
e 7 93
e 7 94
e 7 95
e 7 100
e 8 23
e 8 26
e 8 29
e 8 32
e 8 34
e 8 35
e 8 37
e 8 38
e 8 39
e 8 42
e 8 46
e 8 47
e 8 48
e 8 49
e 8 50
e 8 51
e 8 53
e 8 57
e 8 58
e 8 60
e 8 63
e 8 64
e 8 65
e 8 67
e 8 68
e 8 72
e 8 73
e 8 77
e 8 79
e 8 81
e 8 82
e 8 83
e 8 86
e 8 87
e 8 90
e 8 91
e 8 92
e 8 95
e 8 96
e 8 97
e 8 99
e 8 100
e 9 21
e 9 22
e 9 25
e 9 26
e 9 28
e 9 29
e 9 30
e 9 31
e 9 36
e 9 37
e 9 38
e 9 41
e 9 42
e 9 44
e 9 45
e 9 48
e 9 49
e 9 50
e 9 51
e 9 53
e 9 55
e 9 57
e 9 59
e 9 60
e 9 61
e 9 63
e 9 64
e 9 65
e 9 67
e 9 68
e 9 69
e 9 73
e 9 81
e 9 84
e 9 86
e 9 88
e 9 90
e 9 91
e 9 93
e 9 94
e 9 95
e 9 97
e 9 100
e 10 22
e 10 23
e 10 24
e 10 25
e 10 26
e 10 29
e 10 30
e 10 33
e 10 35
e 10 36
e 10 40
e 10 45
e 10 48
e 10 49
e 10 50
e 10 52
e 10 53
e 10 55
e 10 56
e 10 57
e 10 58
e 10 60
e 10 62
e 10 65
e 10 66
e 10 68
e 10 69
e 10 71
e 10 75
e 10 76
e 10 77
e 10 80
e 10 81
e 10 83
e 10 84
e 10 86
e 10 87
e 10 88
e 10 93
e 10 95
e 10 97
e 11 23
e 11 24
e 11 27
e 11 29
e 11 30
e 11 32
e 11 33
e 11 34
e 11 35
e 11 36
e 11 37
e 11 38
e 11 39
e 11 42
e 11 45
e 11 46
e 11 47
e 11 50
e 11 52
e 11 54
e 11 55
e 11 57
e 11 58
e 11 59
e 11 62
e 11 66
e 11 69
e 11 71
e 11 73
e 11 74
e 11 75
e 11 78
e 11 79
e 11 81
e 11 82
e 11 83
e 11 86
e 11 87
e 11 89
e 11 91
e 11 93
e 11 95
e 11 96
e 11 97
e 11 99
e 11 100
e 12 21
e 12 31
e 12 38
e 12 39
e 12 40
e 12 41
e 12 42
e 12 43
e 12 44
e 12 45
e 12 46
e 12 48
e 12 49
e 12 51
e 12 56
e 12 57
e 12 58
e 12 60
e 12 62
e 12 63
e 12 66
e 12 68
e 12 71
e 12 72
e 12 76
e 12 79
e 12 84
e 12 86
e 12 87
e 12 93
e 12 96
e 12 98
e 13 22
e 13 23
e 13 25
e 13 26
e 13 27
e 13 28
e 13 29
e 13 31
e 13 32
e 13 35
e 13 37
e 13 38
e 13 40
e 13 41
e 13 45
e 13 46
e 13 52
e 13 53
e 13 55
e 13 57
e 13 59
e 13 60
e 13 63
e 13 64
e 13 66
e 13 67
e 13 70
e 13 71
e 13 74
e 13 78
e 13 79
e 13 81
e 13 83
e 13 84
e 13 87
e 13 88
e 13 91
e 13 93
e 13 94
e 13 95
e 13 98
e 13 100
e 14 21
e 14 22
e 14 23
e 14 25
e 14 29
e 14 30
e 14 33
e 14 34
e 14 35
e 14 41
e 14 42
e 14 43
e 14 45
e 14 46
e 14 51
e 14 52
e 14 54
e 14 56
e 14 57
e 14 59
e 14 60
e 14 62
e 14 63
e 14 66
e 14 67
e 14 68
e 14 69
e 14 71
e 14 74
e 14 77
e 14 79
e 14 80
e 14 81
e 14 82
e 14 86
e 14 88
e 14 89
e 14 90
e 14 91
e 14 93
e 14 95
e 14 97
e 14 100
e 15 23
e 15 25
e 15 26
e 15 28
e 15 36
e 15 37
e 15 38
e 15 40
e 15 41
e 15 43
e 15 45
e 15 46
e 15 49
e 15 52
e 15 54
e 15 55
e 15 56
e 15 58
e 15 59
e 15 60
e 15 62
e 15 66
e 15 67
e 15 70
e 15 71
e 15 73
e 15 74
e 15 76
e 15 78
e 15 84
e 15 86
e 15 87
e 15 90
e 15 97
e 15 99
e 16 24
e 16 25
e 16 26
e 16 28
e 16 29
e 16 31
e 16 36
e 16 37
e 16 38
e 16 39
e 16 41
e 16 42
e 16 45
e 16 46
e 16 50
e 16 52
e 16 53
e 16 56
e 16 57
e 16 59
e 16 60
e 16 66
e 16 69
e 16 70
e 16 72
e 16 73
e 16 74
e 16 76
e 16 78
e 16 80
e 16 81
e 16 83
e 16 88
e 16 94
e 16 95
e 16 96
e 16 99
e 16 100
e 17 22
e 17 23
e 17 24
e 17 25
e 17 26
e 17 27
e 17 30
e 17 34
e 17 35
e 17 36
e 17 38
e 17 39
e 17 40
e 17 42
e 17 45
e 17 46
e 17 51
e 17 52
e 17 53
e 17 54
e 17 56
e 17 57
e 17 58
e 17 59
e 17 60
e 17 61
e 17 64
e 17 66
e 17 68
e 17 71
e 17 73
e 17 74
e 17 75
e 17 76
e 17 78
e 17 81
e 17 83
e 17 86
e 17 87
e 17 89
e 17 90
e 17 91
e 17 98
e 18 21
e 18 23
e 18 24
e 18 25
e 18 29
e 18 31
e 18 37
e 18 38
e 18 40
e 18 41
e 18 42
e 18 43
e 18 45
e 18 46
e 18 47
e 18 48
e 18 50
e 18 58
e 18 59
e 18 63
e 18 65
e 18 69
e 18 70
e 18 71
e 18 74
e 18 77
e 18 78
e 18 80
e 18 84
e 18 89
e 18 90
e 18 91
e 18 93
e 18 94
e 18 98
e 18 99
e 18 100
e 19 21
e 19 25
e 19 27
e 19 28
e 19 30
e 19 33
e 19 36
e 19 43
e 19 45
e 19 47
e 19 48
e 19 50
e 19 59
e 19 61
e 19 64
e 19 65
e 19 68
e 19 69
e 19 70
e 19 72
e 19 73
e 19 77
e 19 78
e 19 79
e 19 82
e 19 84
e 19 88
e 19 90
e 19 95
e 19 96
e 19 98
e 19 99
e 19 100
e 20 21
e 20 22
e 20 24
e 20 28
e 20 31
e 20 36
e 20 37
e 20 39
e 20 40
e 20 42
e 20 44
e 20 47
e 20 51
e 20 52
e 20 55
e 20 57
e 20 59
e 20 60
e 20 61
e 20 62
e 20 64
e 20 65
e 20 67
e 20 70
e 20 71
e 20 74
e 20 75
e 20 76
e 20 77
e 20 78
e 20 81
e 20 83
e 20 84
e 20 85
e 20 86
e 20 89
e 20 90
e 20 91
e 20 92
e 20 94
e 20 95
e 20 96
e 20 98
e 20 100
e 21 42
e 21 44
e 21 46
e 21 47
e 21 48
e 21 53
e 21 56
e 21 59
e 21 60
e 21 61
e 21 62
e 21 63
e 21 65
e 21 66
e 21 67
e 21 68
e 21 69
e 21 70
e 21 72
e 21 75
e 21 76
e 21 79
e 21 80
e 21 82
e 21 86
e 21 88
e 21 89
e 21 90
e 21 92
e 21 93
e 21 94
e 21 95
e 21 96
e 21 98
e 21 99
e 21 100
e 22 41
e 22 42
e 22 43
e 22 44
e 22 45
e 22 47
e 22 48
e 22 49
e 22 51
e 22 52
e 22 53
e 22 55
e 22 56
e 22 57
e 22 58
e 22 59
e 22 61
e 22 62
e 22 63
e 22 64
e 22 68
e 22 70
e 22 71
e 22 73
e 22 76
e 22 78
e 22 79
e 22 81
e 22 82
e 22 85
e 22 86
e 22 88
e 22 90
e 22 91
e 22 95
e 22 99
e 23 41
e 23 43
e 23 44
e 23 45
e 23 46
e 23 47
e 23 51
e 23 52
e 23 55
e 23 57
e 23 58
e 23 62
e 23 63
e 23 64
e 23 67
e 23 68
e 23 70
e 23 73
e 23 76
e 23 78
e 23 79
e 23 80
e 23 81
e 23 82
e 23 83
e 23 84
e 23 86
e 23 87
e 23 90
e 23 94
e 23 97
e 23 98
e 23 99
e 24 41
e 24 42
e 24 46
e 24 47
e 24 48
e 24 50
e 24 51
e 24 52
e 24 53
e 24 54
e 24 55
e 24 56
e 24 64
e 24 65
e 24 66
e 24 67
e 24 68
e 24 70
e 24 72
e 24 73
e 24 74
e 24 75
e 24 76
e 24 78
e 24 82
e 24 85
e 24 86
e 24 88
e 24 95
e 24 96
e 24 99
e 25 42
e 25 44
e 25 45
e 25 48
e 25 51
e 25 57
e 25 59
e 25 60
e 25 61
e 25 62
e 25 64
e 25 65
e 25 68
e 25 71
e 25 74
e 25 76
e 25 77
e 25 78
e 25 81
e 25 84
e 25 90
e 25 92
e 25 93
e 25 94
e 25 95
e 25 97
e 26 42
e 26 43
e 26 45
e 26 47
e 26 49
e 26 51
e 26 52
e 26 54
e 26 55
e 26 56
e 26 57
e 26 58
e 26 61
e 26 63
e 26 64
e 26 67
e 26 68
e 26 72
e 26 75
e 26 76
e 26 77
e 26 78
e 26 81
e 26 82
e 26 85
e 26 86
e 26 89
e 26 90
e 26 92
e 26 93
e 26 94
e 26 95
e 26 96
e 26 97
e 26 99
e 27 51
e 27 53
e 27 54
e 27 56
e 27 57
e 27 58
e 27 59
e 27 60
e 27 62
e 27 63
e 27 64
e 27 65
e 27 66
e 27 68
e 27 69
e 27 71
e 27 74
e 27 77
e 27 78
e 27 80
e 27 82
e 27 86
e 27 88
e 27 90
e 27 92
e 27 94
e 27 95
e 27 97
e 27 100
e 28 41
e 28 46
e 28 47
e 28 48
e 28 53
e 28 54
e 28 56
e 28 60
e 28 62
e 28 64
e 28 66
e 28 69
e 28 70
e 28 73
e 28 76
e 28 77
e 28 79
e 28 80
e 28 81
e 28 82
e 28 86
e 28 87
e 28 88
e 28 91
e 28 95
e 28 96
e 28 97
e 28 98
e 28 100
e 29 41
e 29 45
e 29 48
e 29 52
e 29 53
e 29 55
e 29 56
e 29 58
e 29 66
e 29 67
e 29 68
e 29 70
e 29 72
e 29 74
e 29 77
e 29 79
e 29 81
e 29 84
e 29 91
e 29 92
e 29 93
e 29 95
e 29 96
e 29 98
e 29 100
e 30 42
e 30 43
e 30 46
e 30 49
e 30 51
e 30 54
e 30 57
e 30 59
e 30 60
e 30 62
e 30 63
e 30 64
e 30 65
e 30 68
e 30 69
e 30 71
e 30 76
e 30 77
e 30 79
e 30 82
e 30 84
e 30 86
e 30 87
e 30 91
e 30 92
e 30 93
e 30 96
e 30 97
e 30 98
e 30 99
e 30 100
e 31 41
e 31 49
e 31 50
e 31 53
e 31 55
e 31 62
e 31 64
e 31 65
e 31 66
e 31 67
e 31 70
e 31 71
e 31 73
e 31 76
e 31 79
e 31 83
e 31 85
e 31 86
e 31 87
e 31 93
e 31 94
e 31 95
e 31 96
e 31 97
e 31 98
e 31 100
e 32 41
e 32 43
e 32 45
e 32 46
e 32 47
e 32 49
e 32 51
e 32 52
e 32 53
e 32 54
e 32 56
e 32 57
e 32 58
e 32 61
e 32 64
e 32 66
e 32 67
e 32 68
e 32 71
e 32 72
e 32 74
e 32 76
e 32 77
e 32 78
e 32 79
e 32 80
e 32 82
e 32 86
e 32 87
e 32 88
e 32 89
e 32 91
e 32 92
e 32 93
e 32 94
e 32 96
e 32 97
e 32 100
e 33 42
e 33 47
e 33 51
e 33 52
e 33 55
e 33 56
e 33 57
e 33 61
e 33 66
e 33 69
e 33 70
e 33 72
e 33 75
e 33 76
e 33 77
e 33 79
e 33 81
e 33 82
e 33 83
e 33 84
e 33 85
e 33 86
e 33 87
e 33 88
e 33 89
e 33 90
e 33 93
e 33 96
e 33 98
e 34 44
e 34 45
e 34 48
e 34 49
e 34 50
e 34 52
e 34 54
e 34 56
e 34 58
e 34 60
e 34 62
e 34 63
e 34 64
e 34 65
e 34 68
e 34 71
e 34 73
e 34 76
e 34 78
e 34 79
e 34 81
e 34 82
e 34 83
e 34 84
e 34 85
e 34 88
e 34 89
e 34 91
e 34 93
e 34 96
e 34 97
e 34 98
e 34 100
e 35 41
e 35 43
e 35 44
e 35 46
e 35 51
e 35 52
e 35 53
e 35 55
e 35 56
e 35 57
e 35 59
e 35 60
e 35 62
e 35 64
e 35 65
e 35 67
e 35 69
e 35 72
e 35 74
e 35 75
e 35 76
e 35 79
e 35 81
e 35 82
e 35 83
e 35 85
e 35 86
e 35 88
e 35 89
e 35 90
e 35 92
e 35 95
e 35 98
e 35 99
e 36 41
e 36 45
e 36 47
e 36 50
e 36 54
e 36 56
e 36 58
e 36 60
e 36 62
e 36 63
e 36 64
e 36 67
e 36 68
e 36 70
e 36 73
e 36 74
e 36 75
e 36 76
e 36 78
e 36 79
e 36 80
e 36 81
e 36 89
e 36 92
e 36 94
e 36 95
e 36 96
e 36 98
e 36 99
e 36 100
e 37 41
e 37 42
e 37 44
e 37 49
e 37 50
e 37 51
e 37 53
e 37 54
e 37 55
e 37 56
e 37 58
e 37 61
e 37 65
e 37 69
e 37 70
e 37 71
e 37 73
e 37 77
e 37 80
e 37 81
e 37 82
e 37 85
e 37 86
e 37 87
e 37 89
e 37 91
e 37 93
e 37 96
e 37 97
e 37 99
e 38 47
e 38 48
e 38 50
e 38 51
e 38 55
e 38 57
e 38 59
e 38 63
e 38 65
e 38 69
e 38 71
e 38 73
e 38 74
e 38 75
e 38 77
e 38 78
e 38 79
e 38 81
e 38 82
e 38 83
e 38 85
e 38 87
e 38 88
e 38 90
e 38 91
e 38 92
e 38 94
e 38 95
e 38 96
e 38 97
e 38 98
e 38 99
e 38 100
e 39 43
e 39 45
e 39 46
e 39 47
e 39 52
e 39 57
e 39 61
e 39 62
e 39 63
e 39 70
e 39 72
e 39 73
e 39 77
e 39 78
e 39 80
e 39 81
e 39 82
e 39 83
e 39 87
e 39 89
e 39 90
e 39 91
e 39 92
e 39 94
e 39 95
e 39 96
e 39 97
e 39 98
e 39 99
e 39 100
e 40 41
e 40 42
e 40 44
e 40 45
e 40 46
e 40 47
e 40 49
e 40 50
e 40 51
e 40 56
e 40 57
e 40 58
e 40 59
e 40 60
e 40 64
e 40 65
e 40 67
e 40 69
e 40 70
e 40 71
e 40 72
e 40 74
e 40 75
e 40 79
e 40 82
e 40 84
e 40 87
e 40 88
e 40 89
e 40 91
e 40 92
e 40 93
e 40 94
e 40 95
e 40 96
e 40 97
e 40 98
e 41 61
e 41 64
e 41 67
e 41 71
e 41 73
e 41 78
e 41 79
e 41 80
e 41 82
e 41 83
e 41 86
e 41 87
e 41 88
e 41 89
e 41 90
e 41 91
e 41 94
e 41 96
e 41 97
e 41 98
e 42 61
e 42 63
e 42 64
e 42 65
e 42 67
e 42 71
e 42 73
e 42 74
e 42 75
e 42 83
e 42 85
e 42 87
e 42 88
e 42 92
e 42 93
e 42 94
e 42 96
e 42 97
e 42 98
e 42 100
e 43 61
e 43 64
e 43 65
e 43 68
e 43 69
e 43 70
e 43 71
e 43 73
e 43 74
e 43 75
e 43 76
e 43 77
e 43 78
e 43 79
e 43 81
e 43 82
e 43 83
e 43 84
e 43 93
e 43 95
e 43 96
e 44 62
e 44 63
e 44 65
e 44 69
e 44 71
e 44 73
e 44 75
e 44 76
e 44 77
e 44 80
e 44 87
e 44 88
e 44 90
e 44 91
e 44 92
e 44 94
e 44 96
e 44 98
e 45 63
e 45 69
e 45 70
e 45 71
e 45 72
e 45 74
e 45 75
e 45 78
e 45 80
e 45 87
e 45 90
e 45 92
e 45 93
e 45 95
e 45 99
e 45 100
e 46 61
e 46 64
e 46 65
e 46 66
e 46 67
e 46 69
e 46 71
e 46 72
e 46 75
e 46 80
e 46 81
e 46 82
e 46 83
e 46 86
e 46 87
e 46 88
e 46 93
e 46 94
e 46 95
e 46 96
e 47 62
e 47 64
e 47 65
e 47 68
e 47 70
e 47 73
e 47 74
e 47 76
e 47 78
e 47 80
e 47 85
e 47 90
e 47 92
e 47 93
e 47 94
e 47 95
e 47 100
e 48 62
e 48 64
e 48 67
e 48 68
e 48 70
e 48 76
e 48 78
e 48 79
e 48 82
e 48 83
e 48 84
e 48 85
e 48 88
e 48 89
e 48 91
e 48 93
e 48 94
e 48 96
e 48 97
e 48 98
e 48 99
e 48 100
e 49 62
e 49 63
e 49 65
e 49 66
e 49 67
e 49 68
e 49 71
e 49 72
e 49 73
e 49 74
e 49 76
e 49 79
e 49 80
e 49 82
e 49 87
e 49 93
e 49 94
e 49 96
e 49 97
e 49 99
e 50 61
e 50 62
e 50 64
e 50 65
e 50 67
e 50 70
e 50 71
e 50 72
e 50 74
e 50 75
e 50 76
e 50 84
e 50 85
e 50 87
e 50 88
e 50 90
e 50 94
e 50 95
e 50 96
e 50 97
e 50 98
e 51 62
e 51 65
e 51 67
e 51 68
e 51 69
e 51 70
e 51 71
e 51 74
e 51 76
e 51 77
e 51 80
e 51 81
e 51 82
e 51 83
e 51 84
e 51 90
e 51 91
e 51 92
e 51 94
e 51 95
e 51 97
e 51 98
e 51 99
e 52 63
e 52 64
e 52 65
e 52 68
e 52 70
e 52 71
e 52 72
e 52 73
e 52 74
e 52 76
e 52 77
e 52 80
e 52 83
e 52 85
e 52 86
e 52 92
e 52 93
e 52 96
e 52 99
e 52 100
e 53 61
e 53 64
e 53 66
e 53 71
e 53 72
e 53 74
e 53 76
e 53 77
e 53 78
e 53 79
e 53 80
e 53 81
e 53 82
e 53 87
e 53 90
e 53 93
e 53 96
e 53 99
e 54 61
e 54 62
e 54 64
e 54 67
e 54 70
e 54 72
e 54 73
e 54 74
e 54 75
e 54 76
e 54 77
e 54 78
e 54 79
e 54 80
e 54 85
e 54 86
e 54 87
e 54 91
e 54 93
e 54 97
e 54 99
e 54 100
e 55 62
e 55 63
e 55 64
e 55 66
e 55 69
e 55 70
e 55 74
e 55 77
e 55 82
e 55 83
e 55 84
e 55 85
e 55 88
e 55 89
e 55 90
e 55 93
e 55 95
e 56 61
e 56 62
e 56 63
e 56 66
e 56 67
e 56 69
e 56 70
e 56 73
e 56 75
e 56 76
e 56 78
e 56 80
e 56 81
e 56 82
e 56 83
e 56 85
e 56 86
e 56 87
e 56 88
e 56 92
e 56 94
e 56 95
e 56 96
e 56 97
e 56 100
e 57 62
e 57 64
e 57 66
e 57 67
e 57 69
e 57 70
e 57 72
e 57 74
e 57 79
e 57 80
e 57 81
e 57 82
e 57 83
e 57 84
e 57 85
e 57 87
e 57 89
e 57 90
e 57 95
e 57 100
e 58 61
e 58 63
e 58 73
e 58 79
e 58 80
e 58 84
e 58 85
e 58 87
e 58 92
e 58 95
e 58 97
e 58 98
e 58 99
e 58 100
e 59 61
e 59 66
e 59 67
e 59 69
e 59 70
e 59 72
e 59 74
e 59 77
e 59 78
e 59 84
e 59 86
e 59 89
e 59 90
e 59 92
e 59 93
e 59 94
e 59 97
e 59 98
e 59 99
e 59 100
e 60 63
e 60 68
e 60 69
e 60 70
e 60 73
e 60 74
e 60 75
e 60 78
e 60 82
e 60 83
e 60 85
e 60 86
e 60 88
e 60 89
e 60 90
e 60 91
e 60 92
e 60 95
e 60 98
e 61 81
e 61 83
e 61 85
e 61 86
e 61 88
e 61 90
e 61 91
e 61 95
e 61 97
e 61 100
e 62 83
e 62 84
e 62 85
e 62 86
e 62 89
e 62 93
e 62 94
e 62 95
e 62 99
e 62 100
e 63 82
e 63 84
e 63 86
e 63 88
e 63 89
e 63 90
e 63 91
e 63 92
e 63 97
e 63 100
e 64 83
e 64 85
e 64 86
e 64 90
e 64 92
e 64 94
e 64 97
e 64 98
e 64 99
e 65 81
e 65 84
e 65 89
e 65 91
e 65 92
e 65 93
e 65 97
e 65 99
e 66 81
e 66 86
e 66 87
e 66 90
e 66 91
e 66 92
e 66 93
e 66 94
e 66 96
e 66 97
e 66 99
e 66 100
e 67 81
e 67 82
e 67 83
e 67 89
e 67 90
e 67 92
e 67 93
e 67 97
e 67 98
e 67 100
e 68 82
e 68 84
e 68 85
e 68 86
e 68 88
e 68 91
e 68 94
e 68 95
e 68 98
e 68 99
e 68 100
e 69 81
e 69 82
e 69 84
e 69 85
e 69 90
e 69 92
e 69 94
e 69 95
e 69 97
e 69 98
e 69 99
e 70 86
e 70 87
e 70 90
e 70 91
e 70 92
e 70 93
e 70 99
e 71 85
e 71 87
e 71 88
e 71 89
e 71 91
e 71 94
e 71 98
e 71 99
e 71 100
e 72 84
e 72 89
e 72 90
e 72 93
e 72 96
e 72 97
e 72 100
e 73 81
e 73 82
e 73 83
e 73 84
e 73 87
e 73 88
e 73 90
e 73 91
e 73 92
e 73 93
e 73 94
e 73 97
e 73 98
e 73 99
e 74 82
e 74 84
e 74 86
e 74 88
e 74 92
e 74 93
e 74 95
e 74 99
e 75 84
e 75 88
e 75 89
e 75 90
e 75 92
e 75 94
e 75 95
e 75 97
e 75 98
e 76 81
e 76 83
e 76 84
e 76 85
e 76 87
e 76 89
e 76 91
e 76 92
e 76 94
e 76 95
e 76 96
e 76 97
e 76 99
e 76 100
e 77 83
e 77 84
e 77 88
e 77 91
e 77 93
e 77 95
e 77 96
e 77 97
e 77 100
e 78 81
e 78 82
e 78 86
e 78 87
e 78 89
e 78 92
e 78 93
e 78 95
e 78 96
e 78 98
e 79 83
e 79 85
e 79 86
e 79 87
e 79 88
e 79 90
e 79 91
e 79 92
e 79 93
e 79 94
e 79 96
e 79 98
e 79 99
e 79 100
e 80 81
e 80 82
e 80 83
e 80 84
e 80 87
e 80 93
e 80 94
e 80 95
e 80 96
e 80 98
e 80 99
