c FILE: balanced_graphs/balanced_100_5_10_1.col
c
c DESCRIPTION: Random balanced graph, 100 nodes,
c              partitions 5
c              edge probability 0.1
c
c G(100,5,0.1) graph
c number of vertices : 100
c max number of edges: 4950
c edge probability   : 0.1
c
c           Graph Stats
c number of vertices  : 100
c nonisolated vertices: 100
c number of edges     : 401
c edge density        : 0.0810
c max degree          : 16
c avg degree          : 8.02
c min degree          : 3
c
p col 100 401
e 1 24
e 1 36
e 1 39
e 1 48
e 1 76
e 1 88
e 2 22
e 2 39
e 2 45
e 2 52
e 2 53
e 2 57
e 2 58
e 2 70
e 2 78
e 2 94
e 3 21
e 3 27
e 3 38
e 3 51
e 3 54
e 4 21
e 4 24
e 4 27
e 4 42
e 4 56
e 4 60
e 4 64
e 4 68
e 4 84
e 4 86
e 4 95
e 5 53
e 5 58
e 5 62
e 5 68
e 5 72
e 5 75
e 5 77
e 5 82
e 5 93
e 5 96
e 6 29
e 6 35
e 6 36
e 6 45
e 6 53
e 6 56
e 6 63
e 6 68
e 6 84
e 6 86
e 6 94
e 7 24
e 7 37
e 7 43
e 7 45
e 7 52
e 7 67
e 7 69
e 7 82
e 7 83
e 7 87
e 8 23
e 8 29
e 8 36
e 8 37
e 8 43
e 8 48
e 8 51
e 8 52
e 8 57
e 8 71
e 8 84
e 8 90
e 9 26
e 9 36
e 9 61
e 9 64
e 9 71
e 9 75
e 9 80
e 9 82
e 9 85
e 10 24
e 10 35
e 10 43
e 10 57
e 10 88
e 10 92
e 11 49
e 11 51
e 11 52
e 11 58
e 11 83
e 11 90
e 12 22
e 12 26
e 12 35
e 12 51
e 12 58
e 12 68
e 12 69
e 12 84
e 12 93
e 13 23
e 13 30
e 13 32
e 13 38
e 13 44
e 13 47
e 13 50
e 13 80
e 13 89
e 13 93
e 13 95
e 13 97
e 14 22
e 14 39
e 14 46
e 14 66
e 14 89
e 15 24
e 15 34
e 15 38
e 15 91
e 15 93
e 16 25
e 16 26
e 16 36
e 16 48
e 16 49
e 16 64
e 16 75
e 16 84
e 17 24
e 17 36
e 17 42
e 17 54
e 17 60
e 17 98
e 18 21
e 18 25
e 18 39
e 18 49
e 18 58
e 18 88
e 18 92
e 19 22
e 19 26
e 19 52
e 19 67
e 19 73
e 19 81
e 19 88
e 20 27
e 20 41
e 20 49
e 20 50
e 20 70
e 20 90
e 20 97
e 21 48
e 21 65
e 21 67
e 21 84
e 21 89
e 21 93
e 21 95
e 21 97
e 21 100
e 22 42
e 22 59
e 22 100
e 23 53
e 23 57
e 23 65
e 23 82
e 23 90
e 23 91
e 23 92
e 23 93
e 23 94
e 24 43
e 24 46
e 24 62
e 24 72
e 24 81
e 24 94
e 24 97
e 25 42
e 25 84
e 25 93
e 25 94
e 26 41
e 26 49
e 26 50
e 26 53
e 26 54
e 26 63
e 26 66
e 26 71
e 26 75
e 26 87
e 26 89
e 26 94
e 27 43
e 27 46
e 27 47
e 27 65
e 27 70
e 27 95
e 28 47
e 28 57
e 28 87
e 28 91
e 29 41
e 29 49
e 29 80
e 29 83
e 29 85
e 29 92
e 29 95
e 30 48
e 30 51
e 30 52
e 30 72
e 30 97
e 31 55
e 31 63
e 31 65
e 31 69
e 31 96
e 32 45
e 32 53
e 32 54
e 32 55
e 32 85
e 33 49
e 33 51
e 33 62
e 33 84
e 33 98
e 34 43
e 34 44
e 34 46
e 34 80
e 34 84
e 34 94
e 35 47
e 35 66
e 35 70
e 35 83
e 36 66
e 36 70
e 36 71
e 36 73
e 36 92
e 36 97
e 36 98
e 37 51
e 37 55
e 37 64
e 37 78
e 37 97
e 38 43
e 38 46
e 38 77
e 38 85
e 38 89
e 38 98
e 39 41
e 39 80
e 39 87
e 39 90
e 40 54
e 40 57
e 40 83
e 41 61
e 41 69
e 41 73
e 41 74
e 42 76
e 42 80
e 42 83
e 42 85
e 43 67
e 43 94
e 44 69
e 45 92
e 45 94
e 46 89
e 46 92
e 47 79
e 47 92
e 47 100
e 48 66
e 48 88
e 48 97
e 49 86
e 49 89
e 49 96
e 49 98
e 50 72
e 50 74
e 50 78
e 50 82
e 51 75
e 51 85
e 51 92
e 51 95
e 52 69
e 52 88
e 52 90
e 52 99
e 52 100
e 53 61
e 53 62
e 53 63
e 53 75
e 53 80
e 53 97
e 54 63
e 54 74
e 54 80
e 54 83
e 54 89
e 55 63
e 55 64
e 55 66
e 55 87
e 55 91
e 55 93
e 55 95
e 56 63
e 56 93
e 57 74
e 57 86
e 57 87
e 57 89
e 57 91
e 57 97
e 58 75
e 58 87
e 58 90
e 59 65
e 59 73
e 59 79
e 59 91
e 59 93
e 59 95
e 60 66
e 60 70
e 60 74
e 60 78
e 60 93
e 60 97
e 61 86
e 61 94
e 61 95
e 62 84
e 62 90
e 62 92
e 62 93
e 62 95
e 62 98
e 63 82
e 63 90
e 63 93
e 65 89
e 65 98
e 67 87
e 67 91
e 67 95
e 68 85
e 68 86
e 68 95
e 69 81
e 69 82
e 69 87
e 69 89
e 69 97
e 71 88
e 71 89
e 71 91
e 72 85
e 72 92
e 73 81
e 73 90
e 74 83
e 74 90
e 74 92
e 75 97
e 75 99
e 76 85
e 76 99
e 77 94
e 77 99
e 79 84
e 79 89
e 79 90
