c FILE: balanced_graphs/balanced_100_5_25_4.col
c
c DESCRIPTION: Random balanced graph, 100 nodes,
c              partitions 5
c              edge probability 0.25
c
c G(100,5,0.25) graph
c number of vertices : 100
c max number of edges: 4950
c edge probability   : 0.25
c
c           Graph Stats
c number of vertices  : 100
c nonisolated vertices: 100
c number of edges     : 1026
c edge density        : 0.2073
c max degree          : 29
c avg degree          : 20.52
c min degree          : 13
c
p col 100 1026
e 1 26
e 1 27
e 1 29
e 1 30
e 1 33
e 1 45
e 1 55
e 1 60
e 1 61
e 1 63
e 1 67
e 1 75
e 1 76
e 1 80
e 1 81
e 1 84
e 1 85
e 1 87
e 1 93
e 1 97
e 1 100
e 2 39
e 2 43
e 2 49
e 2 50
e 2 59
e 2 67
e 2 80
e 2 81
e 2 86
e 2 91
e 2 94
e 2 99
e 2 100
e 3 22
e 3 23
e 3 25
e 3 28
e 3 32
e 3 34
e 3 38
e 3 42
e 3 43
e 3 45
e 3 46
e 3 56
e 3 58
e 3 61
e 3 63
e 3 67
e 3 74
e 3 77
e 3 84
e 3 86
e 3 91
e 3 96
e 3 98
e 4 27
e 4 35
e 4 37
e 4 41
e 4 43
e 4 44
e 4 55
e 4 58
e 4 59
e 4 67
e 4 75
e 4 77
e 4 87
e 4 88
e 4 89
e 4 92
e 4 93
e 4 95
e 4 99
e 5 22
e 5 31
e 5 33
e 5 36
e 5 37
e 5 41
e 5 43
e 5 45
e 5 48
e 5 52
e 5 53
e 5 56
e 5 62
e 5 64
e 5 66
e 5 67
e 5 73
e 5 81
e 5 83
e 5 86
e 5 97
e 5 99
e 6 24
e 6 32
e 6 35
e 6 37
e 6 43
e 6 49
e 6 52
e 6 54
e 6 55
e 6 56
e 6 59
e 6 64
e 6 65
e 6 72
e 6 76
e 6 77
e 6 79
e 6 84
e 6 85
e 6 89
e 6 92
e 6 97
e 7 28
e 7 29
e 7 30
e 7 34
e 7 37
e 7 47
e 7 48
e 7 55
e 7 57
e 7 58
e 7 59
e 7 65
e 7 71
e 7 75
e 7 79
e 7 83
e 7 84
e 7 89
e 7 92
e 7 97
e 8 32
e 8 34
e 8 35
e 8 36
e 8 37
e 8 40
e 8 42
e 8 46
e 8 48
e 8 52
e 8 54
e 8 56
e 8 57
e 8 65
e 8 70
e 8 71
e 8 75
e 8 77
e 8 82
e 8 84
e 8 86
e 8 88
e 8 89
e 8 91
e 8 98
e 9 21
e 9 23
e 9 25
e 9 26
e 9 28
e 9 31
e 9 39
e 9 41
e 9 61
e 9 69
e 9 72
e 9 74
e 9 81
e 9 82
e 9 88
e 9 91
e 9 96
e 9 97
e 9 98
e 9 99
e 10 27
e 10 37
e 10 42
e 10 49
e 10 52
e 10 55
e 10 69
e 10 72
e 10 83
e 10 90
e 10 91
e 10 93
e 10 95
e 10 97
e 10 100
e 11 27
e 11 28
e 11 30
e 11 34
e 11 43
e 11 45
e 11 46
e 11 47
e 11 53
e 11 57
e 11 61
e 11 62
e 11 66
e 11 69
e 11 70
e 11 72
e 11 77
e 11 78
e 11 79
e 11 81
e 11 86
e 11 92
e 11 94
e 11 96
e 11 98
e 11 100
e 12 28
e 12 30
e 12 36
e 12 38
e 12 44
e 12 47
e 12 61
e 12 62
e 12 65
e 12 71
e 12 72
e 12 73
e 12 78
e 12 79
e 12 89
e 12 91
e 12 95
e 12 96
e 12 97
e 12 99
e 13 27
e 13 28
e 13 30
e 13 31
e 13 37
e 13 38
e 13 41
e 13 51
e 13 53
e 13 55
e 13 57
e 13 59
e 13 66
e 13 72
e 13 74
e 13 80
e 13 83
e 13 90
e 13 94
e 13 95
e 13 97
e 14 22
e 14 28
e 14 30
e 14 34
e 14 35
e 14 36
e 14 40
e 14 43
e 14 46
e 14 53
e 14 55
e 14 65
e 14 66
e 14 68
e 14 75
e 14 76
e 14 77
e 14 80
e 14 81
e 14 85
e 14 87
e 14 94
e 14 96
e 14 100
e 15 22
e 15 23
e 15 25
e 15 36
e 15 39
e 15 43
e 15 45
e 15 46
e 15 47
e 15 48
e 15 49
e 15 50
e 15 55
e 15 63
e 15 65
e 15 70
e 15 71
e 15 72
e 15 75
e 15 79
e 15 88
e 15 92
e 15 94
e 15 96
e 15 100
e 16 26
e 16 30
e 16 36
e 16 37
e 16 41
e 16 46
e 16 48
e 16 49
e 16 52
e 16 53
e 16 57
e 16 70
e 16 73
e 16 77
e 16 78
e 16 80
e 16 81
e 16 85
e 16 91
e 16 93
e 16 96
e 16 97
e 16 98
e 16 99
e 17 24
e 17 25
e 17 26
e 17 27
e 17 29
e 17 30
e 17 31
e 17 39
e 17 46
e 17 49
e 17 51
e 17 52
e 17 53
e 17 54
e 17 57
e 17 59
e 17 61
e 17 62
e 17 65
e 17 67
e 17 69
e 17 76
e 17 77
e 17 79
e 17 82
e 17 93
e 17 95
e 18 31
e 18 32
e 18 40
e 18 50
e 18 55
e 18 57
e 18 59
e 18 61
e 18 62
e 18 64
e 18 65
e 18 69
e 18 71
e 18 79
e 18 84
e 18 93
e 18 94
e 18 100
e 19 21
e 19 31
e 19 33
e 19 35
e 19 40
e 19 46
e 19 49
e 19 51
e 19 53
e 19 57
e 19 59
e 19 60
e 19 63
e 19 66
e 19 67
e 19 70
e 19 76
e 19 88
e 19 90
e 19 91
e 19 98
e 19 99
e 20 24
e 20 30
e 20 31
e 20 33
e 20 45
e 20 47
e 20 48
e 20 52
e 20 55
e 20 62
e 20 67
e 20 72
e 20 74
e 20 80
e 20 81
e 20 84
e 20 88
e 20 95
e 20 98
e 20 99
e 21 45
e 21 46
e 21 49
e 21 51
e 21 52
e 21 53
e 21 58
e 21 61
e 21 65
e 21 68
e 21 69
e 21 72
e 21 74
e 21 76
e 21 78
e 21 79
e 21 85
e 21 88
e 21 99
e 22 42
e 22 43
e 22 45
e 22 53
e 22 59
e 22 60
e 22 61
e 22 67
e 22 74
e 22 82
e 22 85
e 22 92
e 22 93
e 23 46
e 23 48
e 23 50
e 23 55
e 23 58
e 23 60
e 23 66
e 23 69
e 23 73
e 23 78
e 23 79
e 23 81
e 23 83
e 23 85
e 23 91
e 23 93
e 23 95
e 23 96
e 23 97
e 23 98
e 24 41
e 24 47
e 24 54
e 24 59
e 24 63
e 24 69
e 24 71
e 24 74
e 24 77
e 24 79
e 24 80
e 24 85
e 24 92
e 24 94
e 24 99
e 25 43
e 25 47
e 25 48
e 25 54
e 25 60
e 25 61
e 25 62
e 25 69
e 25 74
e 25 79
e 25 82
e 25 83
e 25 89
e 25 92
e 25 98
e 25 99
e 26 42
e 26 51
e 26 52
e 26 53
e 26 56
e 26 58
e 26 66
e 26 71
e 26 73
e 26 78
e 26 95
e 27 42
e 27 45
e 27 48
e 27 49
e 27 51
e 27 55
e 27 65
e 27 66
e 27 74
e 27 78
e 27 85
e 27 94
e 27 95
e 27 96
e 27 97
e 28 45
e 28 47
e 28 50
e 28 53
e 28 55
e 28 57
e 28 58
e 28 64
e 28 67
e 28 78
e 28 80
e 28 82
e 28 83
e 28 84
e 28 85
e 28 89
e 28 91
e 28 94
e 28 95
e 28 99
e 29 41
e 29 45
e 29 46
e 29 47
e 29 52
e 29 58
e 29 63
e 29 67
e 29 68
e 29 69
e 29 77
e 29 82
e 29 83
e 29 90
e 29 95
e 29 97
e 29 100
e 30 45
e 30 47
e 30 50
e 30 54
e 30 61
e 30 65
e 30 66
e 30 77
e 30 79
e 30 80
e 30 81
e 30 96
e 31 43
e 31 50
e 31 54
e 31 55
e 31 63
e 31 66
e 31 67
e 31 71
e 31 74
e 31 82
e 31 85
e 31 86
e 31 88
e 31 90
e 31 92
e 31 95
e 31 98
e 32 42
e 32 44
e 32 45
e 32 47
e 32 53
e 32 60
e 32 64
e 32 66
e 32 69
e 32 76
e 32 89
e 32 99
e 33 44
e 33 47
e 33 64
e 33 65
e 33 68
e 33 75
e 33 80
e 33 81
e 33 84
e 33 87
e 33 89
e 33 94
e 33 95
e 33 96
e 33 97
e 34 44
e 34 49
e 34 52
e 34 54
e 34 58
e 34 61
e 34 65
e 34 73
e 34 79
e 34 80
e 34 85
e 34 93
e 34 96
e 35 44
e 35 45
e 35 49
e 35 51
e 35 56
e 35 62
e 35 63
e 35 70
e 35 73
e 35 75
e 35 80
e 35 84
e 35 85
e 35 88
e 35 89
e 35 97
e 36 51
e 36 52
e 36 56
e 36 57
e 36 59
e 36 60
e 36 62
e 36 70
e 36 72
e 36 73
e 36 74
e 36 78
e 36 79
e 36 86
e 36 88
e 37 44
e 37 52
e 37 65
e 37 69
e 37 71
e 37 79
e 37 94
e 38 42
e 38 46
e 38 52
e 38 53
e 38 59
e 38 67
e 38 75
e 38 77
e 38 80
e 38 84
e 38 88
e 38 90
e 38 95
e 38 99
e 39 45
e 39 46
e 39 47
e 39 57
e 39 60
e 39 61
e 39 69
e 39 89
e 39 91
e 39 93
e 39 97
e 40 47
e 40 51
e 40 52
e 40 55
e 40 71
e 40 77
e 40 78
e 40 79
e 40 85
e 40 86
e 40 87
e 40 88
e 40 90
e 40 96
e 40 100
e 41 63
e 41 64
e 41 65
e 41 66
e 41 67
e 41 68
e 41 76
e 41 79
e 41 91
e 42 65
e 42 69
e 42 71
e 42 77
e 42 78
e 42 79
e 42 82
e 42 88
e 42 89
e 43 63
e 43 65
e 43 75
e 43 80
e 43 81
e 43 83
e 43 94
e 43 97
e 44 63
e 44 65
e 44 72
e 44 73
e 44 74
e 44 77
e 44 79
e 44 80
e 44 91
e 44 93
e 44 100
e 45 68
e 45 76
e 45 78
e 45 84
e 45 85
e 45 87
e 45 91
e 45 95
e 46 61
e 46 67
e 46 68
e 46 69
e 46 73
e 46 77
e 46 82
e 46 84
e 46 86
e 46 93
e 47 62
e 47 64
e 47 66
e 47 67
e 47 73
e 47 81
e 47 85
e 47 88
e 47 92
e 47 95
e 47 96
e 47 99
e 48 63
e 48 64
e 48 66
e 48 76
e 48 79
e 48 85
e 48 86
e 48 87
e 48 88
e 48 89
e 48 98
e 49 62
e 49 65
e 49 70
e 49 73
e 49 75
e 49 80
e 49 86
e 49 90
e 49 91
e 49 94
e 49 99
e 49 100
e 50 66
e 50 71
e 50 74
e 50 76
e 50 78
e 50 79
e 50 81
e 50 84
e 50 86
e 50 88
e 50 89
e 50 91
e 50 93
e 50 95
e 51 61
e 51 62
e 51 67
e 51 72
e 51 77
e 51 78
e 51 84
e 51 90
e 51 95
e 52 61
e 52 70
e 52 71
e 52 84
e 52 98
e 52 100
e 53 71
e 53 74
e 53 75
e 53 80
e 53 81
e 53 86
e 53 93
e 53 96
e 53 100
e 54 66
e 54 68
e 54 74
e 54 77
e 54 87
e 54 93
e 54 98
e 55 63
e 55 68
e 55 74
e 55 77
e 55 83
e 55 84
e 55 85
e 55 87
e 55 88
e 55 92
e 55 93
e 55 100
e 56 62
e 56 70
e 56 77
e 56 85
e 56 93
e 56 95
e 57 65
e 57 67
e 57 72
e 57 74
e 57 78
e 57 80
e 57 84
e 57 85
e 57 88
e 57 91
e 57 94
e 57 97
e 58 61
e 58 67
e 58 68
e 58 69
e 58 77
e 58 78
e 58 94
e 58 97
e 58 98
e 59 64
e 59 65
e 59 72
e 59 74
e 59 77
e 59 79
e 59 84
e 59 90
e 59 93
e 59 95
e 60 62
e 60 64
e 60 65
e 60 67
e 60 72
e 60 74
e 60 75
e 60 77
e 60 79
e 60 80
e 60 84
e 60 85
e 60 88
e 60 90
e 60 93
e 60 100
e 61 82
e 61 86
e 61 89
e 61 90
e 61 95
e 61 98
e 62 83
e 62 86
e 62 88
e 62 94
e 63 86
e 63 88
e 63 93
e 63 94
e 63 98
e 64 89
e 64 95
e 64 97
e 64 99
e 65 84
e 65 85
e 65 93
e 65 95
e 65 97
e 65 100
e 66 83
e 66 86
e 66 87
e 66 89
e 66 91
e 66 94
e 66 97
e 67 82
e 67 85
e 67 86
e 67 90
e 67 91
e 67 93
e 67 94
e 67 96
e 68 81
e 68 85
e 68 86
e 68 88
e 68 90
e 68 92
e 68 93
e 68 95
e 68 96
e 69 91
e 70 87
e 70 90
e 70 92
e 70 95
e 70 96
e 70 99
e 71 84
e 71 86
e 71 87
e 71 89
e 71 94
e 71 95
e 72 81
e 72 84
e 72 85
e 72 88
e 72 90
e 72 94
e 73 86
e 73 94
e 74 83
e 74 86
e 74 91
e 74 93
e 75 81
e 75 82
e 76 82
e 76 84
e 76 86
e 76 92
e 76 93
e 76 97
e 76 98
e 76 100
e 77 86
e 77 89
e 77 91
e 77 93
e 77 96
e 78 81
e 78 83
e 78 87
e 78 92
e 78 100
e 79 86
e 79 91
e 79 92
e 79 94
e 79 96
e 79 100
e 80 84
e 80 86
e 80 89
e 80 90
e 80 91
e 80 92
