c FILE: balanced_graphs/balanced_60_3_10_5.col
c
c DESCRIPTION: Random balanced graph, 60 nodes,
c              partitions 3
c              edge probability 0.1
c
c G(60,3,0.1) graph
c number of vertices : 60
c max number of edges: 1770
c edge probability   : 0.1
c
c           Graph Stats
c number of vertices  : 60
c nonisolated vertices: 60
c number of edges     : 118
c edge density        : 0.0667
c max degree          : 8
c avg degree          : 3.93
c min degree          : 1
c
p col 60 118
e 1 22
e 1 34
e 1 35
e 1 38
e 1 45
e 1 48
e 1 53
e 1 57
e 2 23
e 2 25
e 2 39
e 3 29
e 3 33
e 3 45
e 3 55
e 3 60
e 4 22
e 4 42
e 4 48
e 4 54
e 5 56
e 6 46
e 6 52
e 6 56
e 7 29
e 7 37
e 7 44
e 7 58
e 8 23
e 8 38
e 8 42
e 8 46
e 8 48
e 8 52
e 8 56
e 9 24
e 9 28
e 9 38
e 9 48
e 9 56
e 9 60
e 10 23
e 10 56
e 10 60
e 11 43
e 11 47
e 12 21
e 12 37
e 12 43
e 13 25
e 13 27
e 13 34
e 13 52
e 13 54
e 13 59
e 14 25
e 14 34
e 15 28
e 15 30
e 15 54
e 15 60
e 16 33
e 17 23
e 17 29
e 18 22
e 18 28
e 18 29
e 18 30
e 18 32
e 18 41
e 18 43
e 18 44
e 19 32
e 19 39
e 19 48
e 20 21
e 20 30
e 20 31
e 20 50
e 20 58
e 21 58
e 22 43
e 22 49
e 22 58
e 23 50
e 23 53
e 24 53
e 24 55
e 24 60
e 25 51
e 26 43
e 26 45
e 26 48
e 26 56
e 26 57
e 27 54
e 27 57
e 28 57
e 29 49
e 30 50
e 31 44
e 31 50
e 31 55
e 32 59
e 33 41
e 34 45
e 36 44
e 36 45
e 36 49
e 36 55
e 37 54
e 37 55
e 37 56
e 38 45
e 39 50
e 39 57
e 40 46
e 40 55
